%%MatrixMarket matrix coordinate pattern symmetric
2000 2000 16000
1 178
178 1
1 874
874 1
1 928
928 1
1 1058
1058 1
2 248
248 2
2 454
454 2
2 674
674 2
2 771
771 2
2 1075
1075 2
2 1175
1175 2
2 1280
1280 2
2 1622
1622 2
3 326
326 3
3 343
343 3
3 508
508 3
3 725
725 3
3 881
881 3
3 1487
1487 3
3 1985
1985 3
4 133
133 4
4 303
303 4
4 414
414 4
4 471
471 4
4 567
567 4
4 644
644 4
4 1478
1478 4
5 214
214 5
5 259
259 5
5 445
445 5
5 580
580 5
5 1508
1508 5
5 1786
1786 5
5 1986
1986 5
6 367
367 6
6 498
498 6
6 554
554 6
6 1411
1411 6
6 1419
1419 6
6 1798
1798 6
7 362
362 7
7 409
409 7
7 562
562 7
7 706
706 7
7 960
960 7
7 1130
1130 7
7 1178
1178 7
7 1363
1363 7
7 1555
1555 7
7 1781
1781 7
8 172
172 8
8 329
329 8
8 537
537 8
8 587
587 8
8 706
706 8
8 709
709 8
8 1083
1083 8
9 85
85 9
9 107
107 9
9 159
159 9
9 257
257 9
9 530
530 9
9 1003
1003 9
9 1207
1207 9
9 1297
1297 9
9 1354
1354 9
9 1396
1396 9
9 1545
1545 9
9 1949
1949 9
10 248
248 10
10 439
439 10
10 888
888 10
10 903
903 10
10 988
988 10
10 1205
1205 10
10 1330
1330 10
10 1436
1436 10
10 1670
1670 10
10 1799
1799 10
10 1823
1823 10
10 1958
1958 10
11 158
158 11
11 515
515 11
11 576
576 11
11 860
860 11
11 905
905 11
11 944
944 11
11 1874
1874 11
11 1941
1941 11
12 129
129 12
12 279
279 12
12 583
583 12
12 756
756 12
12 928
928 12
12 1124
1124 12
12 1135
1135 12
12 1182
1182 12
12 1596
1596 12
12 1758
1758 12
13 57
57 13
13 107
107 13
13 405
405 13
13 543
543 13
13 603
603 13
13 1133
1133 13
13 1900
1900 13
14 698
698 14
14 908
908 14
14 916
916 14
14 1287
1287 14
14 1933
1933 14
15 91
91 15
15 221
221 15
15 476
476 15
15 748
748 15
15 882
882 15
15 1110
1110 15
15 1134
1134 15
15 1222
1222 15
15 1352
1352 15
15 1610
1610 15
15 1935
1935 15
16 262
262 16
16 394
394 16
16 732
732 16
16 870
870 16
16 1145
1145 16
16 1444
1444 16
16 1448
1448 16
16 1570
1570 16
17 688
688 17
17 1527
1527 17
17 1731
1731 17
17 1861
1861 17
18 26
26 18
18 678
678 18
18 745
745 18
18 963
963 18
18 1142
1142 18
18 1398
1398 18
18 1981
1981 18
19 47
47 19
19 180
180 19
19 425
425 19
19 686
686 19
19 1150
1150 19
19 1368
1368 19
19 1405
1405 19
20 297
297 20
20 361
361 20
20 549
549 20
20 985
985 20
20 1760
1760 20
20 1793
1793 20
21 110
110 21
21 610
610 21
21 1012
1012 21
21 1109
1109 21
21 1204
1204 21
21 1224
1224 21
21 1566
1566 21
21 1841
1841 21
21 1854
1854 21
21 1933
1933 21
22 668
668 22
22 806
806 22
22 1123
1123 22
23 253
253 23
23 736
736 23
23 886
886 23
23 1314
1314 23
23 1814
1814 23
24 741
741 24
24 828
828 24
24 1049
1049 24
25 136
136 25
25 179
179 25
25 327
327 25
25 328
328 25
25 604
604 25
25 654
654 25
25 660
660 25
25 809
809 25
25 1019
1019 25
25 1090
1090 25
25 1454
1454 25
25 1735
1735 25
25 1886
1886 25
26 795
795 26
26 848
848 26
26 1026
1026 26
26 1222
1222 26
26 1236
1236 26
26 1856
1856 26
27 444
444 27
27 939
939 27
27 1332
1332 27
28 169
169 28
28 827
827 28
28 1170
1170 28
28 1319
1319 28
28 1619
1619 28
28 1869
1869 28
28 1877
1877 28
28 1920
1920 28
29 181
181 29
29 401
401 29
29 485
485 29
29 615
615 29
29 696
696 29
29 856
856 29
29 878
878 29
29 955
955 29
29 1255
1255 29
29 1429
1429 29
29 1721
1721 29
30 282
282 30
30 1197
1197 30
30 1379
1379 30
30 1469
1469 30
30 1471
1471 30
30 1806
1806 30
30 1822
1822 30
31 144
144 31
31 266
266 31
31 547
547 31
31 1047
1047 31
31 1416
1416 31
31 1665
1665 31
31 1758
1758 31
31 1781
1781 31
32 58
58 32
32 263
263 32
32 542
542 32
32 755
755 32
32 940
940 32
32 1421
1421 32
32 1693
1693 32
33 381
381 33
33 607
607 33
33 634
634 33
33 716
716 33
33 948
948 33
33 966
966 33
33 1054
1054 33
33 1798
1798 33
33 1958
1958 33
34 41
41 34
34 373
373 34
34 534
534 34
34 553
553 34
34 758
758 34
34 894
894 34
34 1631
1631 34
34 1849
1849 34
34 1972
1972 34
35 621
621 35
35 939
939 35
35 1009
1009 35
35 1101
1101 35
35 1777
1777 35
36 107
107 36
36 250
250 36
36 452
452 36
36 680
680 36
36 1066
1066 36
36 1110
1110 36
36 1356
1356 36
36 1483
1483 36
36 1518
1518 36
36 1694
1694 36
37 307
307 37
37 380
380 37
37 518
518 37
37 719
719 37
37 844
844 37
37 1019
1019 37
37 1429
1429 37
38 186
186 38
38 262
262 38
38 892
892 38
38 1292
1292 38
38 1627
1627 38
38 1831
1831 38
39 395
395 39
39 767
767 39
39 1019
1019 39
39 1296
1296 39
39 1427
1427 39
40 288
288 40
40 611
611 40
40 637
637 40
40 1244
1244 40
40 1282
1282 40
40 1518
1518 40
40 1689
1689 40
40 1812
1812 40
41 62
62 41
41 547
547 41
41 688
688 41
41 1333
1333 41
41 1468
1468 41
41 1708
1708 41
42 377
377 42
42 454
454 42
42 480
480 42
42 553
553 42
42 623
623 42
42 918
918 42
42 1002
1002 42
42 1359
1359 42
42 1405
1405 42
42 1425
1425 42
42 1490
1490 42
42 1838
1838 42
42 1919
1919 42
43 354
354 43
43 691
691 43
43 759
759 43
43 1081
1081 43
43 1114
1114 43
43 1623
1623 43
43 1770
1770 43
43 1864
1864 43
43 1916
1916 43
44 90
90 44
44 254
254 44
44 290
290 44
44 570
570 44
44 798
798 44
44 928
928 44
44 937
937 44
44 1439
1439 44
44 1611
1611 44
45 355
355 45
45 420
420 45
45 650
650 45
45 1235
1235 45
45 1545
1545 45
45 1698
1698 45
46 74
74 46
46 590
590 46
46 660
660 46
46 669
669 46
46 1112
1112 46
46 1277
1277 46
46 1351
1351 46
46 1827
1827 46
47 632
632 47
47 658
658 47
47 738
738 47
47 912
912 47
47 918
918 47
47 1089
1089 47
47 1101
1101 47
47 1228
1228 47
48 133
133 48
48 201
201 48
48 456
456 48
48 578
578 48
48 599
599 48
48 602
602 48
48 988
988 48
48 1303
1303 48
48 1332
1332 48
48 1585
1585 48
48 1735
1735 48
48 1876
1876 48
48 1888
1888 48
48 1910
1910 48
48 1999
1999 48
49 572
572 49
49 715
715 49
49 794
794 49
49 819
819 49
49 940
940 49
49 1665
1665 49
49 1896
1896 49
50 519
519 50
50 674
674 50
50 776
776 50
50 967
967 50
50 999
999 50
50 1853
1853 50
50 1910
1910 50
51 559
559 51
51 599
599 51
51 1209
1209 51
51 1213
1213 51
51 1431
1431 51
51 1939
1939 51
51 1942
1942 51
51 1985
1985 51
52 292
292 52
52 412
412 52
52 600
600 52
52 619
619 52
52 801
801 52
52 1033
1033 52
52 1041
1041 52
52 1519
1519 52
52 1566
1566 52
52 1639
1639 52
52 1692
1692 52
53 116
116 53
53 265
265 53
53 294
294 53
53 453
453 53
53 543
543 53
53 762
762 53
53 846
846 53
53 947
947 53
53 1080
1080 53
53 1387
1387 53
53 1884
1884 53
54 145
145 54
54 167
167 54
54 429
429 54
54 807
807 54
54 929
929 54
54 1047
1047 54
54 1216
1216 54
54 1468
1468 54
55 816
816 55
55 1053
1053 55
55 1081
1081 55
55 1514
1514 55
55 1645
1645 55
55 1681
1681 55
55 1713
1713 55
55 1885
1885 55
56 366
366 56
56 527
527 56
56 1059
1059 56
56 1060
1060 56
57 338
338 57
57 889
889 57
57 1002
1002 57
57 1299
1299 57
57 1311
1311 57
57 1555
1555 57
57 1621
1621 57
58 1493
1493 58
58 1727
1727 58
59 194
194 59
59 667
667 59
59 729
729 59
59 779
779 59
59 910
910 59
59 1999
1999 59
60 375
375 60
60 574
574 60
60 931
931 60
60 950
950 60
60 1016
1016 60
60 1062
1062 60
60 1135
1135 60
60 1281
1281 60
60 1722
1722 60
60 1724
1724 60
61 71
71 61
61 146
146 61
61 254
254 61
61 265
265 61
61 266
266 61
61 1116
1116 61
61 1257
1257 61
61 1428
1428 61
61 1545
1545 61
61 1647
1647 61
61 1686
1686 61
61 1749
1749 61
62 178
178 62
62 337
337 62
62 1141
1141 62
62 1168
1168 62
62 1206
1206 62
62 1501
1501 62
62 1746
1746 62
62 1768
1768 62
62 1934
1934 62
62 1944
1944 62
63 120
120 63
63 155
155 63
63 400
400 63
63 669
669 63
63 1017
1017 63
63 1115
1115 63
63 1162
1162 63
63 1179
1179 63
63 1634
1634 63
63 1849
1849 63
64 90
90 64
64 246
246 64
64 855
855 64
64 982
982 64
64 1033
1033 64
64 1065
1065 64
65 852
852 65
65 1041
1041 65
65 1087
1087 65
65 1373
1373 65
65 1419
1419 65
65 1860
1860 65
66 159
159 66
66 498
498 66
66 955
955 66
66 1381
1381 66
66 1650
1650 66
66 1686
1686 66
66 1781
1781 66
66 1981
1981 66
67 347
347 67
67 574
574 67
67 927
927 67
67 1548
1548 67
67 1592
1592 67
67 1717
1717 67
68 396
396 68
68 669
669 68
68 950
950 68
68 1471
1471 68
68 1520
1520 68
69 118
118 69
69 267
267 69
69 406
406 69
69 552
552 69
69 828
828 69
69 958
958 69
69 1459
1459 69
69 1755
1755 69
70 198
198 70
70 404
404 70
70 468
468 70
70 641
641 70
70 1012
1012 70
70 1107
1107 70
70 1986
1986 70
71 139
139 71
71 174
174 71
71 405
405 71
71 512
512 71
71 527
527 71
71 893
893 71
71 1026
1026 71
71 1419
1419 71
71 1449
1449 71
71 1593
1593 71
71 1917
1917 71
72 280
280 72
72 729
729 72
72 814
814 72
72 882
882 72
72 925
925 72
72 1447
1447 72
72 1929
1929 72
72 1997
1997 72
73 90
90 73
73 187
187 73
73 449
449 73
73 451
451 73
73 569
569 73
73 1056
1056 73
73 1297
1297 73
73 1298
1298 73
73 1321
1321 73
73 1407
1407 73
73 1819
1819 73
73 1841
1841 73
74 143
143 74
74 164
164 74
74 462
462 74
74 477
477 74
74 692
692 74
74 1455
1455 74
74 1875
1875 74
74 1881
1881 74
75 280
280 75
75 424
424 75
75 473
473 75
75 853
853 75
75 940
940 75
75 1015
1015 75
75 1262
1262 75
75 1350
1350 75
75 1384
1384 75
75 1521
1521 75
75 1632
1632 75
75 1785
1785 75
76 642
642 76
76 730
730 76
76 806
806 76
76 1218
1218 76
76 1998
1998 76
77 181
181 77
77 223
223 77
77 234
234 77
77 729
729 77
77 743
743 77
77 801
801 77
77 1126
1126 77
77 1254
1254 77
77 1482
1482 77
77 1796
1796 77
77 1942
1942 77
78 754
754 78
78 861
861 78
78 869
869 78
78 1183
1183 78
78 1234
1234 78
78 1372
1372 78
78 1483
1483 78
78 1743
1743 78
78 1766
1766 78
78 1790
1790 78
79 454
454 79
79 673
673 79
79 698
698 79
79 1149
1149 79
79 1609
1609 79
79 1649
1649 79
80 251
251 80
80 469
469 80
80 518
518 80
80 775
775 80
80 837
837 80
80 1389
1389 80
80 1599
1599 80
80 1972
1972 80
81 95
95 81
81 153
153 81
81 273
273 81
81 683
683 81
81 894
894 81
81 961
961 81
81 1081
1081 81
81 1168
1168 81
81 1322
1322 81
82 95
95 82
82 193
193 82
82 300
300 82
82 398
398 82
82 473
473 82
82 523
523 82
82 596
596 82
82 915
915 82
82 1038
1038 82
82 1365
1365 82
82 1794
1794 82
82 1954
1954 82
83 213
213 83
83 588
588 83
83 702
702 83
83 868
868 83
83 954
954 83
83 1102
1102 83
83 1238
1238 83
83 1905
1905 83
84 232
232 84
84 715
715 84
84 1167
1167 84
84 1574
1574 84
84 1644
1644 84
84 1801
1801 84
85 761
761 85
85 1112
1112 85
85 1395
1395 85
85 1475
1475 85
85 1704
1704 85
85 1754
1754 85
85 1919
1919 85
86 357
357 86
86 390
390 86
86 791
791 86
86 1057
1057 86
86 1142
1142 86
86 1385
1385 86
87 186
186 87
87 213
213 87
87 275
275 87
87 414
414 87
87 430
430 87
87 736
736 87
87 853
853 87
87 1023
1023 87
87 1074
1074 87
87 1101
1101 87
87 1234
1234 87
87 1394
1394 87
87 1444
1444 87
87 1932
1932 87
87 1983
1983 87
88 996
996 88
88 1019
1019 88
88 1407
1407 88
88 1647
1647 88
88 1657
1657 88
88 1681
1681 88
88 1878
1878 88
88 1937
1937 88
89 195
195 89
89 524
524 89
89 707
707 89
89 714
714 89
89 886
886 89
89 1289
1289 89
89 1540
1540 89
89 1759
1759 89
90 393
393 90
90 540
540 90
90 617
617 90
90 718
718 90
90 1009
1009 90
90 1067
1067 90
90 1882
1882 90
91 256
256 91
91 420
420 91
91 778
778 91
91 1522
1522 91
91 1532
1532 91
92 182
182 92
92 206
206 92
92 500
500 92
92 1223
1223 92
92 1389
1389 92
92 1414
1414 92
92 1468
1468 92
92 1474
1474 92
92 1665
1665 92
92 1819
1819 92
93 136
136 93
93 141
141 93
93 760
760 93
93 865
865 93
93 1187
1187 93
93 1307
1307 93
93 1642
1642 93
93 1888
1888 93
94 292
292 94
94 501
501 94
94 679
679 94
94 778
778 94
94 1483
1483 94
94 1879
1879 94
94 1887
1887 94
94 1940
1940 94
95 228
228 95
95 266
266 95
95 408
408 95
95 672
672 95
95 1186
1186 95
95 1208
1208 95
95 1210
1210 95
95 1449
1449 95
95 1804
1804 95
96 102
102 96
96 1680
1680 96
96 1741
1741 96
97 912
912 97
97 981
981 97
97 1435
1435 97
97 1759
1759 97
97 1783
1783 97
98 309
309 98
98 719
719 98
98 764
764 98
98 966
966 98
98 970
970 98
98 1191
1191 98
98 1223
1223 98
98 1842
1842 98
98 1907
1907 98
98 1912
1912 98
99 117
117 99
99 565
565 99
99 1062
1062 99
99 1127
1127 99
99 1555
1555 99
99 1935
1935 99
99 1950
1950 99
100 304
304 100
100 373
373 100
100 513
513 100
100 946
946 100
100 1756
1756 100
100 1805
1805 100
101 151
151 101
101 172
172 101
101 191
191 101
101 315
315 101
101 661
661 101
101 855
855 101
101 1119
1119 101
101 1317
1317 101
101 1456
1456 101
102 231
231 102
102 385
385 102
102 705
705 102
102 1047
1047 102
102 1081
1081 102
102 1223
1223 102
102 1233
1233 102
102 1444
1444 102
102 1537
1537 102
102 1735
1735 102
103 233
233 103
103 420
420 103
103 493
493 103
103 612
612 103
103 819
819 103
104 214
214 104
104 313
313 104
104 415
415 104
104 558
558 104
104 703
703 104
104 720
720 104
104 836
836 104
104 878
878 104
104 1012
1012 104
104 1120
1120 104
104 1173
1173 104
104 1192
1192 104
104 1891
1891 104
105 564
564 105
105 752
752 105
105 882
882 105
105 1058
1058 105
105 1294
1294 105
105 1968
1968 105
106 766
766 106
106 1021
1021 106
106 1163
1163 106
106 1985
1985 106
107 387
387 107
107 765
765 107
107 880
880 107
107 1662
1662 107
107 1691
1691 107
107 1755
1755 107
107 1921
1921 107
108 239
239 108
108 655
655 108
108 1033
1033 108
108 1183
1183 108
108 1898
1898 108
109 479
479 109
109 684
684 109
109 773
773 109
109 1077
1077 109
109 1220
1220 109
109 1317
1317 109
109 1502
1502 109
109 1919
1919 109
110 308
308 110
110 543
543 110
110 570
570 110
110 1019
1019 110
110 1076
1076 110
110 1430
1430 110
110 1604
1604 110
110 1699
1699 110
110 1820
1820 110
110 1944
1944 110
111 489
489 111
111 590
590 111
111 684
684 111
111 746
746 111
111 949
949 111
111 1017
1017 111
111 1051
1051 111
111 1096
1096 111
111 1419
1419 111
111 1559
1559 111
111 1683
1683 111
112 145
145 112
112 460
460 112
112 523
523 112
112 1048
1048 112
112 1144
1144 112
112 1384
1384 112
112 1644
1644 112
113 456
456 113
113 487
487 113
113 1065
1065 113
113 1099
1099 113
113 1777
1777 113
114 257
257 114
114 514
514 114
114 931
931 114
114 1126
1126 114
114 1705
1705 114
114 1754
1754 114
115 336
336 115
115 442
442 115
115 490
490 115
115 937
937 115
115 1060
1060 115
115 1072
1072 115
115 1432
1432 115
115 1589
1589 115
116 134
134 116
116 1014
1014 116
116 1141
1141 116
116 1186
1186 116
116 1494
1494 116
116 1554
1554 116
116 1581
1581 116
117 313
313 117
117 541
541 117
117 700
700 117
117 792
792 117
117 1228
1228 117
117 1607
1607 117
117 1644
1644 117
118 163
163 118
118 521
521 118
118 645
645 118
118 704
704 118
118 1361
1361 118
118 1437
1437 118
118 1547
1547 118
119 617
617 119
119 845
845 119
119 950
950 119
119 1176
1176 119
119 1657
1657 119
119 1669
1669 119
119 1771
1771 119
119 1861
1861 119
120 174
174 120
120 245
245 120
120 566
566 120
120 578
578 120
120 931
931 120
120 1208
1208 120
120 1211
1211 120
120 1353
1353 120
120 1485
1485 120
121 346
346 121
121 785
785 121
121 1218
1218 121
121 1228
1228 121
121 1435
1435 121
122 587
587 122
122 611
611 122
122 657
657 122
122 835
835 122
122 995
995 122
122 1020
1020 122
122 1077
1077 122
122 1123
1123 122
122 1556
1556 122
122 1672
1672 122
122 1752
1752 122
123 280
280 123
123 734
734 123
123 798
798 123
123 900
900 123
123 1218
1218 123
123 1281
1281 123
123 1922
1922 123
123 1980
1980 123
124 288
288 124
124 444
444 124
124 610
610 124
124 786
786 124
124 1362
1362 124
124 1476
1476 124
124 1845
1845 124
125 297
297 125
125 381
381 125
125 648
648 125
125 1215
1215 125
125 1311
1311 125
125 1703
1703 125
125 1757
1757 125
126 159
159 126
126 204
204 126
126 412
412 126
126 467
467 126
126 735
735 126
126 1063
1063 126
126 1291
1291 126
126 1935
1935 126
127 1668
1668 127
127 1723
1723 127
127 1866
1866 127
127 1979
1979 127
127 1981
1981 127
128 141
141 128
128 268
268 128
128 388
388 128
128 457
457 128
128 939
939 128
128 972
972 128
128 1776
1776 128
128 1952
1952 128
129 583
583 129
129 641
641 129
129 661
661 129
129 756
756 129
129 973
973 129
129 1175
1175 129
129 1574
1574 129
129 1945
1945 129
130 166
166 130
130 1375
1375 130
130 1382
1382 130
130 1630
1630 130
130 1701
1701 130
130 1829
1829 130
131 280
280 131
131 415
415 131
131 519
519 131
131 811
811 131
131 858
858 131
131 1722
1722 131
131 1938
1938 131
132 683
683 132
132 897
897 132
132 986
986 132
132 991
991 132
132 1063
1063 132
132 1145
1145 132
133 386
386 133
133 899
899 133
133 1368
1368 133
133 1380
1380 133
133 1689
1689 133
133 1976
1976 133
134 378
378 134
134 1486
1486 134
134 1518
1518 134
134 1700
1700 134
134 1764
1764 134
134 1906
1906 134
134 1947
1947 134
135 165
165 135
135 274
274 135
135 455
455 135
135 823
823 135
135 906
906 135
135 1225
1225 135
135 1415
1415 135
135 1424
1424 135
135 1889
1889 135
135 1987
1987 135
136 394
394 136
136 562
562 136
136 647
647 136
136 654
654 136
136 769
769 136
136 1014
1014 136
136 1293
1293 136
136 1663
1663 136
136 1942
1942 136
137 340
340 137
137 384
384 137
137 443
443 137
137 500
500 137
137 699
699 137
137 1301
1301 137
137 1530
1530 137
137 1738
1738 137
137 1859
1859 137
137 2000
2000 137
138 213
213 138
138 224
224 138
138 569
569 138
138 617
617 138
138 1696
1696 138
138 1703
1703 138
138 1778
1778 138
138 1960
1960 138
139 590
590 139
139 754
754 139
139 1307
1307 139
139 1395
1395 139
139 1632
1632 139
139 1832
1832 139
140 169
169 140
140 287
287 140
140 299
299 140
140 334
334 140
140 528
528 140
140 547
547 140
140 1266
1266 140
140 1326
1326 140
140 1432
1432 140
140 1517
1517 140
141 246
246 141
141 439
439 141
141 1087
1087 141
141 1215
1215 141
141 1233
1233 141
141 1240
1240 141
141 1358
1358 141
141 1547
1547 141
141 1566
1566 141
142 259
259 142
142 758
758 142
142 1217
1217 142
142 1352
1352 142
142 1613
1613 142
142 1619
1619 142
142 1646
1646 142
142 1647
1647 142
142 1692
1692 142
143 302
302 143
143 621
621 143
143 677
677 143
143 761
761 143
143 893
893 143
143 1012
1012 143
143 1500
1500 143
143 1554
1554 143
143 1974
1974 143
144 214
214 144
144 241
241 144
144 437
437 144
144 492
492 144
144 516
516 144
144 596
596 144
144 642
642 144
144 766
766 144
144 931
931 144
144 1103
1103 144
144 1178
1178 144
144 1376
1376 144
145 238
238 145
145 456
456 145
145 577
577 145
145 956
956 145
145 1156
1156 145
146 311
311 146
146 946
946 146
146 1288
1288 146
146 1457
1457 146
147 306
306 147
147 434
434 147
147 567
567 147
147 720
720 147
147 1115
1115 147
147 1227
1227 147
147 1351
1351 147
147 1488
1488 147
147 1856
1856 147
148 259
259 148
148 311
311 148
148 495
495 148
148 587
587 148
148 693
693 148
148 1076
1076 148
148 1526
1526 148
148 1772
1772 148
149 176
176 149
149 229
229 149
149 366
366 149
149 1219
1219 149
149 1588
1588 149
149 1612
1612 149
149 1776
1776 149
150 370
370 150
150 391
391 150
150 662
662 150
150 766
766 150
150 1429
1429 150
150 1546
1546 150
150 1558
1558 150
150 1578
1578 150
150 1703
1703 150
151 170
170 151
151 178
178 151
151 193
193 151
151 1004
1004 151
151 1181
1181 151
151 1418
1418 151
151 1420
1420 151
151 1536
1536 151
152 385
385 152
152 397
397 152
152 1216
1216 152
152 1496
1496 152
152 1810
1810 152
153 940
940 153
153 1157
1157 153
154 332
332 154
154 625
625 154
154 710
710 154
154 836
836 154
154 1082
1082 154
154 1384
1384 154
154 1387
1387 154
154 1928
1928 154
154 1991
1991 154
155 409
409 155
155 832
832 155
155 1448
1448 155
155 1527
1527 155
155 1692
1692 155
156 270
270 156
156 562
562 156
156 906
906 156
156 1202
1202 156
156 1407
1407 156
156 1763
1763 156
156 1792
1792 156
157 470
470 157
157 604
604 157
157 677
677 157
157 1237
1237 157
157 1579
1579 157
157 1647
1647 157
158 212
212 158
158 560
560 158
158 880
880 158
158 1071
1071 158
158 1584
1584 158
158 1654
1654 158
158 1712
1712 158
158 1836
1836 158
158 1852
1852 158
159 193
193 159
159 388
388 159
159 580
580 159
159 724
724 159
159 1530
1530 159
159 1834
1834 159
160 312
312 160
160 486
486 160
160 503
503 160
160 664
664 160
160 818
818 160
160 1261
1261 160
160 1575
1575 160
161 520
520 161
161 658
658 161
161 722
722 161
161 1363
1363 161
161 1492
1492 161
161 1916
1916 161
161 1992
1992 161
162 217
217 162
162 307
307 162
162 472
472 162
162 491
491 162
162 796
796 162
162 828
828 162
162 1122
1122 162
162 1440
1440 162
162 1447
1447 162
162 1470
1470 162
162 1982
1982 162
163 789
789 163
163 869
869 163
163 1521
1521 163
163 1649
1649 163
163 1677
1677 163
163 1686
1686 163
164 507
507 164
164 785
785 164
164 937
937 164
164 1160
1160 164
165 1050
1050 165
165 1772
1772 165
165 1987
1987 165
166 1240
1240 166
166 1358
1358 166
166 1436
1436 166
166 1746
1746 166
167 234
234 167
167 327
327 167
167 354
354 167
167 400
400 167
167 848
848 167
167 1323
1323 167
168 332
332 168
168 466
466 168
168 469
469 168
168 508
508 168
168 531
531 168
168 1672
1672 168
168 1692
1692 168
169 395
395 169
169 1162
1162 169
169 1258
1258 169
169 1478
1478 169
169 1680
1680 169
170 1234
1234 170
170 1300
1300 170
170 1322
1322 170
170 1359
1359 170
170 1438
1438 170
170 1468
1468 170
170 1716
1716 170
170 1922
1922 170
171 212
212 171
171 324
324 171
171 742
742 171
171 810
810 171
171 1010
1010 171
171 1140
1140 171
171 1549
1549 171
171 1677
1677 171
172 194
194 172
172 372
372 172
172 391
391 172
172 1324
1324 172
172 1395
1395 172
172 1424
1424 172
172 1520
1520 172
173 543
543 173
173 990
990 173
173 1154
1154 173
173 1166
1166 173
173 1354
1354 173
173 1356
1356 173
173 1627
1627 173
173 1699
1699 173
173 1703
1703 173
173 1753
1753 173
173 1873
1873 173
174 871
871 174
174 873
873 174
174 921
921 174
174 940
940 174
174 1246
1246 174
174 1510
1510 174
174 1727
1727 174
175 592
592 175
175 650
650 175
175 744
744 175
175 805
805 175
175 937
937 175
175 1052
1052 175
175 1218
1218 175
175 1532
1532 175
175 1628
1628 175
176 203
203 176
176 292
292 176
176 489
489 176
176 1443
1443 176
176 1743
1743 176
176 1842
1842 176
176 1901
1901 176
176 1920
1920 176
176 1927
1927 176
177 808
808 177
177 902
902 177
177 1166
1166 177
177 1457
1457 177
177 1467
1467 177
177 1579
1579 177
178 993
993 178
178 1139
1139 178
178 1351
1351 178
178 1484
1484 178
178 1685
1685 178
179 830
830 179
179 965
965 179
179 1536
1536 179
179 1548
1548 179
179 1804
1804 179
180 217
217 180
180 229
229 180
180 654
654 180
180 1919
1919 180
180 1993
1993 180
181 213
213 181
181 229
229 181
181 267
267 181
181 507
507 181
181 561
561 181
181 663
663 181
181 672
672 181
181 722
722 181
181 749
749 181
181 1247
1247 181
181 1476
1476 181
182 225
225 182
182 369
369 182
182 1119
1119 182
182 1357
1357 182
182 1490
1490 182
182 1493
1493 182
182 1498
1498 182
182 1542
1542 182
183 292
292 183
183 753
753 183
183 1010
1010 183
183 1488
1488 183
183 1761
1761 183
184 472
472 184
184 498
498 184
184 509
509 184
184 533
533 184
184 743
743 184
184 1426
1426 184
184 1587
1587 184
184 1655
1655 184
184 1976
1976 184
185 650
650 185
185 1110
1110 185
185 1248
1248 185
185 1331
1331 185
185 1698
1698 185
185 1924
1924 185
186 424
424 186
186 494
494 186
186 959
959 186
186 1276
1276 186
186 1668
1668 186
186 1762
1762 186
187 200
200 187
187 610
610 187
187 806
806 187
187 1151
1151 187
187 1229
1229 187
187 1597
1597 187
187 1667
1667 187
187 1980
1980 187
188 390
390 188
188 445
445 188
188 535
535 188
188 1384
1384 188
188 1554
1554 188
188 1604
1604 188
188 1812
1812 188
189 206
206 189
189 400
400 189
189 403
403 189
189 543
543 189
189 892
892 189
189 986
986 189
189 1158
1158 189
189 1773
1773 189
189 1879
1879 189
190 536
536 190
190 802
802 190
190 1065
1065 190
190 1300
1300 190
190 1523
1523 190
190 1920
1920 190
191 212
212 191
191 289
289 191
191 907
907 191
191 940
940 191
191 1145
1145 191
191 1273
1273 191
191 1338
1338 191
191 1351
1351 191
191 1386
1386 191
191 1446
1446 191
191 1455
1455 191
191 1820
1820 191
191 1963
1963 191
192 445
445 192
192 900
900 192
192 909
909 192
192 1334
1334 192
192 1380
1380 192
192 1564
1564 192
192 1715
1715 192
192 1770
1770 192
192 1885
1885 192
193 463
463 193
193 464
464 193
193 1146
1146 193
193 1832
1832 193
194 372
372 194
194 419
419 194
194 509
509 194
194 851
851 194
194 902
902 194
194 1344
1344 194
194 1626
1626 194
194 1676
1676 194
194 1739
1739 194
195 420
420 195
195 569
569 195
195 625
625 195
195 1566
1566 195
195 1770
1770 195
196 431
431 196
196 448
448 196
196 476
476 196
196 697
697 196
196 976
976 196
196 1940
1940 196
197 260
260 197
197 396
396 197
197 717
717 197
197 925
925 197
197 931
931 197
197 1080
1080 197
197 1506
1506 197
197 1773
1773 197
198 321
321 198
198 397
397 198
198 973
973 198
198 1238
1238 198
198 1381
1381 198
198 1448
1448 198
198 1748
1748 198
198 1924
1924 198
199 278
278 199
199 599
599 199
199 1113
1113 199
199 1336
1336 199
199 1379
1379 199
199 1785
1785 199
200 733
733 200
200 1006
1006 200
200 1399
1399 200
200 1420
1420 200
200 1453
1453 200
200 1488
1488 200
200 1913
1913 200
201 685
685 201
201 733
733 201
201 745
745 201
201 1125
1125 201
201 1190
1190 201
201 1415
1415 201
201 1454
1454 201
201 1477
1477 201
201 1949
1949 201
202 915
915 202
202 955
955 202
202 1227
1227 202
202 1447
1447 202
202 1514
1514 202
202 1824
1824 202
203 235
235 203
203 520
520 203
203 723
723 203
203 909
909 203
203 1258
1258 203
203 1529
1529 203
203 1556
1556 203
203 1706
1706 203
204 289
289 204
204 639
639 204
204 816
816 204
204 1244
1244 204
204 1737
1737 204
204 1758
1758 204
204 1788
1788 204
204 1884
1884 204
205 248
248 205
205 992
992 205
205 1251
1251 205
205 1527
1527 205
205 1622
1622 205
205 1790
1790 205
205 1970
1970 205
206 311
311 206
206 360
360 206
206 659
659 206
206 679
679 206
206 870
870 206
206 953
953 206
206 1016
1016 206
206 1100
1100 206
206 1686
1686 206
207 503
503 207
207 575
575 207
207 580
580 207
207 731
731 207
207 847
847 207
207 1207
1207 207
207 1356
1356 207
207 1479
1479 207
207 1575
1575 207
207 1640
1640 207
207 1964
1964 207
208 384
384 208
208 1654
1654 208
208 1848
1848 208
209 212
212 209
209 818
818 209
209 1048
1048 209
209 1282
1282 209
209 1305
1305 209
209 1426
1426 209
210 547
547 210
210 705
705 210
210 749
749 210
210 839
839 210
210 846
846 210
210 889
889 210
210 1034
1034 210
210 1135
1135 210
210 1338
1338 210
210 1519
1519 210
210 1785
1785 210
210 1924
1924 210
211 962
962 211
211 1412
1412 211
211 1743
1743 211
211 1779
1779 211
211 1909
1909 211
211 1919
1919 211
211 1970
1970 211
212 306
306 212
212 700
700 212
212 1075
1075 212
212 1457
1457 212
212 1682
1682 212
212 1685
1685 212
212 1695
1695 212
212 1883
1883 212
212 1890
1890 212
212 1947
1947 212
213 406
406 213
213 864
864 213
213 910
910 213
213 1336
1336 213
213 1436
1436 213
214 620
620 214
214 832
832 214
214 1077
1077 214
214 1704
1704 214
215 222
222 215
215 259
259 215
215 446
446 215
215 697
697 215
215 1152
1152 215
215 1352
1352 215
215 1492
1492 215
215 1507
1507 215
215 1645
1645 215
215 1713
1713 215
215 1822
1822 215
215 1965
1965 215
215 1970
1970 215
216 642
642 216
216 792
792 216
216 1272
1272 216
216 1423
1423 216
217 618
618 217
217 796
796 217
217 1293
1293 217
217 1391
1391 217
217 1890
1890 217
218 632
632 218
218 1091
1091 218
218 1359
1359 218
218 1520
1520 218
218 1774
1774 218
218 1847
1847 218
218 1942
1942 218
218 1980
1980 218
219 237
237 219
219 424
424 219
219 484
484 219
219 634
634 219
219 738
738 219
219 1013
1013 219
219 1054
1054 219
219 1288
1288 219
219 1328
1328 219
219 1631
1631 219
219 1661
1661 219
220 443
443 220
220 557
557 220
220 612
612 220
220 806
806 220
220 1124
1124 220
220 1550
1550 220
220 1684
1684 220
220 1949
1949 220
221 714
714 221
221 1460
1460 221
222 308
308 222
222 1069
1069 222
222 1090
1090 222
222 1127
1127 222
222 1147
1147 222
222 1264
1264 222
222 1400
1400 222
222 1521
1521 222
222 1652
1652 222
222 1768
1768 222
222 1837
1837 222
223 418
418 223
223 426
426 223
223 956
956 223
223 1017
1017 223
224 327
327 224
224 332
332 224
224 591
591 224
224 906
906 224
224 1039
1039 224
224 1435
1435 224
224 1704
1704 224
225 355
355 225
225 357
357 225
225 441
441 225
225 476
476 225
225 568
568 225
225 580
580 225
225 1310
1310 225
225 1331
1331 225
225 1384
1384 225
225 1567
1567 225
226 591
591 226
226 1142
1142 226
226 1202
1202 226
226 1224
1224 226
227 515
515 227
227 522
522 227
227 1306
1306 227
227 1321
1321 227
227 1495
1495 227
227 1593
1593 227
227 1715
1715 227
228 250
250 228
228 450
450 228
228 754
754 228
228 1301
1301 228
228 1304
1304 228
228 1632
1632 228
228 1702
1702 228
229 323
323 229
229 341
341 229
229 568
568 229
229 851
851 229
229 969
969 229
229 1183
1183 229
229 1693
1693 229
229 1759
1759 229
229 1797
1797 229
229 1985
1985 229
230 265
265 230
230 348
348 230
230 491
491 230
230 550
550 230
230 1112
1112 230
231 722
722 231
231 781
781 231
231 912
912 231
231 1152
1152 231
231 1494
1494 231
231 1756
1756 231
231 1821
1821 231
231 1881
1881 231
232 380
380 232
232 800
800 232
232 1038
1038 232
232 1210
1210 232
233 722
722 233
233 1051
1051 233
233 1308
1308 233
233 1382
1382 233
233 1867
1867 233
234 363
363 234
234 597
597 234
234 952
952 234
234 978
978 234
234 1453
1453 234
234 1879
1879 234
235 1146
1146 235
235 1572
1572 235
235 1861
1861 235
235 1990
1990 235
236 848
848 236
236 1449
1449 236
236 1804
1804 236
236 1824
1824 236
236 1933
1933 236
237 258
258 237
237 683
683 237
237 686
686 237
237 848
848 237
237 913
913 237
237 1195
1195 237
237 1845
1845 237
237 1954
1954 237
238 417
417 238
238 510
510 238
238 563
563 238
238 749
749 238
238 759
759 238
238 761
761 238
238 791
791 238
238 1307
1307 238
238 1312
1312 238
238 1759
1759 238
238 1761
1761 238
238 1780
1780 238
238 1924
1924 238
239 259
259 239
239 550
550 239
239 679
679 239
239 761
761 239
239 868
868 239
239 1015
1015 239
239 1054
1054 239
239 1150
1150 239
239 1154
1154 239
239 1216
1216 239
239 1336
1336 239
239 1745
1745 239
240 1337
1337 240
240 1634
1634 240
240 1691
1691 240
240 1757
1757 240
241 249
249 241
241 375
375 241
241 1082
1082 241
241 1168
1168 241
241 1543
1543 241
241 1545
1545 241
241 1701
1701 241
241 1929
1929 241
242 817
817 242
242 1014
1014 242
242 1176
1176 242
242 1349
1349 242
242 1599
1599 242
243 515
515 243
243 1106
1106 243
243 1984
1984 243
244 246
246 244
244 815
815 244
244 945
945 244
244 1026
1026 244
244 1534
1534 244
244 1562
1562 244
244 1939
1939 244
244 1943
1943 244
245 397
397 245
245 980
980 245
245 1405
1405 245
245 1487
1487 245
245 1521
1521 245
245 1859
1859 245
245 1950
1950 245
246 931
931 246
246 1047
1047 246
246 1638
1638 246
246 1820
1820 246
247 755
755 247
247 806
806 247
247 900
900 247
247 961
961 247
248 351
351 248
248 428
428 248
248 868
868 248
248 912
912 248
248 1008
1008 248
248 1081
1081 248
248 1107
1107 248
248 1527
1527 248
248 1615
1615 248
248 1670
1670 248
248 1773
1773 248
248 1909
1909 248
249 257
257 249
249 499
499 249
249 516
516 249
249 520
520 249
249 643
643 249
249 687
687 249
249 701
701 249
249 768
768 249
249 854
854 249
249 1363
1363 249
249 1624
1624 249
249 1727
1727 249
249 1733
1733 249
249 1781
1781 249
249 1976
1976 249
250 324
324 250
250 461
461 250
250 1007
1007 250
250 1594
1594 250
251 331
331 251
251 639
639 251
251 649
649 251
251 1446
1446 251
252 261
261 252
252 406
406 252
252 518
518 252
252 630
630 252
252 720
720 252
252 1003
1003 252
252 1621
1621 252
253 473
473 253
253 905
905 253
253 1115
1115 253
253 1452
1452 253
253 1545
1545 253
254 547
547 254
254 777
777 254
254 1253
1253 254
254 1415
1415 254
254 1952
1952 254
255 765
765 255
255 1056
1056 255
255 1333
1333 255
255 1400
1400 255
255 1416
1416 255
255 1545
1545 255
255 1614
1614 255
255 1790
1790 255
255 1920
1920 255
256 566
566 256
256 696
696 256
256 836
836 256
256 912
912 256
256 1056
1056 256
256 1460
1460 256
256 1691
1691 256
256 1735
1735 256
256 1865
1865 256
257 283
283 257
257 287
287 257
257 508
508 257
257 804
804 257
257 941
941 257
257 1027
1027 257
257 1094
1094 257
257 1206
1206 257
257 1232
1232 257
257 1678
1678 257
257 1834
1834 257
257 1843
1843 257
258 482
482 258
258 507
507 258
258 559
559 258
258 669
669 258
258 906
906 258
258 1112
1112 258
258 1413
1413 258
258 1553
1553 258
259 345
345 259
259 444
444 259
259 656
656 259
259 739
739 259
259 865
865 259
259 931
931 259
259 1130
1130 259
259 1390
1390 259
259 1596
1596 259
260 526
526 260
260 926
926 260
260 934
934 260
260 1058
1058 260
260 1207
1207 260
260 1564
1564 260
260 1658
1658 260
260 1900
1900 260
261 424
424 261
261 529
529 261
261 639
639 261
261 1467
1467 261
261 1733
1733 261
261 1874
1874 261
262 688
688 262
262 731
731 262
262 1231
1231 262
262 1630
1630 262
262 1685
1685 262
262 1900
1900 262
263 402
402 263
263 695
695 263
263 700
700 263
263 890
890 263
263 1312
1312 263
263 1538
1538 263
263 1652
1652 263
264 361
361 264
264 559
559 264
264 723
723 264
264 1037
1037 264
264 1287
1287 264
264 1334
1334 264
264 1910
1910 264
265 590
590 265
265 678
678 265
265 818
818 265
265 978
978 265
265 1044
1044 265
265 1374
1374 265
265 1838
1838 265
265 1957
1957 265
266 421
421 266
266 867
867 266
266 1214
1214 266
266 1292
1292 266
266 1466
1466 266
266 1541
1541 266
266 1582
1582 266
266 1813
1813 266
266 1894
1894 266
267 318
318 267
267 396
396 267
267 433
433 267
267 1148
1148 267
267 1200
1200 267
267 1744
1744 267
268 517
517 268
268 863
863 268
268 1149
1149 268
268 1534
1534 268
268 1830
1830 268
268 1996
1996 268
269 689
689 269
269 793
793 269
269 910
910 269
269 934
934 269
269 1278
1278 269
269 1679
1679 269
269 1703
1703 269
269 1873
1873 269
269 1947
1947 269
269 1966
1966 269
270 502
502 270
270 725
725 270
270 953
953 270
270 1079
1079 270
270 1479
1479 270
271 552
552 271
271 590
590 271
271 686
686 271
271 797
797 271
271 989
989 271
271 1056
1056 271
271 1391
1391 271
271 1850
1850 271
272 654
654 272
272 1133
1133 272
272 1579
1579 272
272 1587
1587 272
272 1886
1886 272
273 432
432 273
273 977
977 273
273 1165
1165 273
273 1182
1182 273
273 1279
1279 273
273 1362
1362 273
273 1855
1855 273
274 616
616 274
274 661
661 274
274 701
701 274
274 838
838 274
274 843
843 274
274 857
857 274
274 1069
1069 274
274 1248
1248 274
274 1301
1301 274
274 1370
1370 274
275 397
397 275
275 573
573 275
275 1180
1180 275
275 1447
1447 275
275 1708
1708 275
276 821
821 276
276 1056
1056 276
276 1183
1183 276
276 1682
1682 276
276 1744
1744 276
276 1853
1853 276
276 1872
1872 276
276 1877
1877 276
277 470
470 277
277 639
639 277
277 899
899 277
277 1138
1138 277
277 1356
1356 277
277 1406
1406 277
277 1759
1759 277
278 430
430 278
278 489
489 278
278 548
548 278
278 615
615 278
278 762
762 278
278 1384
1384 278
278 1494
1494 278
278 1532
1532 278
278 1733
1733 278
279 377
377 279
279 1306
1306 279
279 1655
1655 279
279 1863
1863 279
280 660
660 280
280 753
753 280
280 765
765 280
280 895
895 280
280 910
910 280
280 1274
1274 280
280 1649
1649 280
281 571
571 281
281 620
620 281
281 651
651 281
281 679
679 281
281 730
730 281
281 742
742 281
281 791
791 281
281 981
981 281
281 1086
1086 281
281 1169
1169 281
281 1447
1447 281
281 1539
1539 281
281 1641
1641 281
281 1782
1782 281
281 1998
1998 281
282 308
308 282
282 1450
1450 282
283 518
518 283
283 534
534 283
283 554
554 283
283 830
830 283
283 927
927 283
283 1021
1021 283
283 1110
1110 283
283 1405
1405 283
283 1926
1926 283
284 566
566 284
284 1302
1302 284
284 1414
1414 284
284 1603
1603 284
284 1776
1776 284
285 333
333 285
285 340
340 285
285 453
453 285
285 648
648 285
285 1025
1025 285
285 1197
1197 285
285 1357
1357 285
285 1421
1421 285
285 1682
1682 285
285 1697
1697 285
285 1759
1759 285
286 335
335 286
286 450
450 286
286 474
474 286
286 538
538 286
286 1464
1464 286
286 1489
1489 286
286 1629
1629 286
286 1637
1637 286
286 1888
1888 286
287 289
289 287
287 380
380 287
287 755
755 287
287 859
859 287
287 907
907 287
287 1002
1002 287
287 1019
1019 287
287 1264
1264 287
287 1566
1566 287
287 1593
1593 287
287 1640
1640 287
287 1994
1994 287
288 535
535 288
288 868
868 288
288 1504
1504 288
288 1553
1553 288
288 1847
1847 288
288 1999
1999 288
289 712
712 289
289 803
803 289
289 998
998 289
289 1411
1411 289
289 1594
1594 289
290 868
868 290
290 876
876 290
290 1146
1146 290
290 1322
1322 290
290 1400
1400 290
291 693
693 291
291 894
894 291
291 950
950 291
291 1193
1193 291
291 1372
1372 291
292 721
721 292
292 886
886 292
292 1319
1319 292
293 716
716 293
293 1067
1067 293
293 1348
1348 293
293 1595
1595 293
293 1693
1693 293
293 1729
1729 293
294 328
328 294
294 388
388 294
294 688
688 294
294 879
879 294
294 881
881 294
294 1073
1073 294
294 1203
1203 294
294 1473
1473 294
294 1865
1865 294
295 578
578 295
295 880
880 295
295 1164
1164 295
295 1605
1605 295
295 1793
1793 295
296 376
376 296
296 452
452 296
296 575
575 296
296 679
679 296
296 913
913 296
296 1039
1039 296
296 1188
1188 296
296 1598
1598 296
296 1672
1672 296
296 1717
1717 296
296 1923
1923 296
297 316
316 297
297 391
391 297
297 637
637 297
297 1176
1176 297
297 1244
1244 297
297 1268
1268 297
298 674
674 298
298 693
693 298
298 863
863 298
298 1138
1138 298
298 1212
1212 298
298 1361
1361 298
299 587
587 299
299 615
615 299
299 845
845 299
299 938
938 299
299 1745
1745 299
300 410
410 300
300 561
561 300
300 669
669 300
300 839
839 300
300 950
950 300
300 994
994 300
300 1197
1197 300
300 1395
1395 300
300 1440
1440 300
300 1971
1971 300
301 383
383 301
301 417
417 301
301 803
803 301
301 881
881 301
301 925
925 301
301 1091
1091 301
301 1364
1364 301
302 438
438 302
302 454
454 302
302 869
869 302
302 874
874 302
302 921
921 302
302 1085
1085 302
302 1838
1838 302
303 319
319 303
303 439
439 303
303 1124
1124 303
303 1421
1421 303
303 1705
1705 303
303 1731
1731 303
303 1918
1918 303
303 1957
1957 303
303 1977
1977 303
303 1998
1998 303
304 390
390 304
304 396
396 304
304 895
895 304
304 1578
1578 304
304 1784
1784 304
305 552
552 305
305 732
732 305
305 869
869 305
305 1348
1348 305
305 1379
1379 305
305 1595
1595 305
305 1877
1877 305
306 310
310 306
306 374
374 306
306 542
542 306
306 999
999 306
306 1223
1223 306
306 1677
1677 306
306 1679
1679 306
306 1729
1729 306
306 1774
1774 306
307 462
462 307
307 547
547 307
307 818
818 307
307 1756
1756 307
307 1784
1784 307
307 1801
1801 307
307 1844
1844 307
308 652
652 308
308 711
711 308
308 844
844 308
308 1004
1004 308
308 1155
1155 308
308 1292
1292 308
308 1419
1419 308
308 1498
1498 308
308 1653
1653 308
308 1861
1861 308
308 1865
1865 308
308 1892
1892 308
309 446
446 309
309 577
577 309
309 692
692 309
309 764
764 309
309 1030
1030 309
309 1094
1094 309
309 1131
1131 309
309 1467
1467 309
309 1493
1493 309
309 1605
1605 309
309 1625
1625 309
309 1952
1952 309
310 564
564 310
310 661
661 310
310 803
803 310
310 946
946 310
310 1846
1846 310
311 355
355 311
311 553
553 311
311 624
624 311
311 754
754 311
311 898
898 311
311 1248
1248 311
312 570
570 312
312 847
847 312
312 902
902 312
312 928
928 312
312 1501
1501 312
312 1522
1522 312
312 1721
1721 312
312 1874
1874 312
312 1906
1906 312
312 1974
1974 312
313 463
463 313
313 744
744 313
313 942
942 313
313 1110
1110 313
313 1513
1513 313
313 1607
1607 313
313 1645
1645 313
313 1739
1739 313
313 1868
1868 313
313 1982
1982 313
314 1507
1507 314
314 1603
1603 314
314 1716
1716 314
314 1969
1969 314
315 668
668 315
315 860
860 315
315 1377
1377 315
315 1471
1471 315
315 1834
1834 315
315 1862
1862 315
316 418
418 316
316 627
627 316
316 631
631 316
316 749
749 316
316 771
771 316
316 1023
1023 316
316 1249
1249 316
316 1371
1371 316
316 1752
1752 316
317 621
621 317
317 675
675 317
317 958
958 317
317 993
993 317
317 1048
1048 317
317 1328
1328 317
317 1448
1448 317
317 1503
1503 317
317 1904
1904 317
318 340
340 318
318 446
446 318
318 1005
1005 318
318 1148
1148 318
318 1183
1183 318
318 1240
1240 318
318 1393
1393 318
318 1935
1935 318
318 1982
1982 318
319 725
725 319
319 1403
1403 319
319 1478
1478 319
319 1878
1878 319
319 1934
1934 319
320 327
327 320
320 706
706 320
320 758
758 320
320 787
787 320
320 1606
1606 320
320 1638
1638 320
321 382
382 321
321 629
629 321
321 909
909 321
321 997
997 321
321 1142
1142 321
321 1161
1161 321
321 1190
1190 321
321 1366
1366 321
321 1438
1438 321
321 1671
1671 321
321 1864
1864 321
321 1920
1920 321
322 422
422 322
322 633
633 322
322 747
747 322
322 895
895 322
322 938
938 322
322 977
977 322
322 1317
1317 322
322 1345
1345 322
322 1600
1600 322
322 1666
1666 322
323 593
593 323
323 1144
1144 323
323 1435
1435 323
323 1450
1450 323
323 1499
1499 323
323 1748
1748 323
323 1755
1755 323
324 433
433 324
324 569
569 324
324 817
817 324
324 877
877 324
324 1081
1081 324
324 1208
1208 324
324 1506
1506 324
325 351
351 325
325 630
630 325
325 828
828 325
325 870
870 325
325 891
891 325
325 1302
1302 325
325 1557
1557 325
325 1831
1831 325
326 606
606 326
326 638
638 326
326 665
665 326
326 916
916 326
326 1054
1054 326
326 1653
1653 326
327 703
703 327
327 897
897 327
327 1160
1160 327
327 1513
1513 327
328 934
934 328
328 1278
1278 328
328 1471
1471 328
329 507
507 329
329 1029
1029 329
329 1230
1230 329
330 362
362 330
330 824
824 330
330 1161
1161 330
330 1417
1417 330
330 1583
1583 330
330 1718
1718 330
330 1766
1766 330
331 474
474 331
331 834
834 331
331 1042
1042 331
331 1198
1198 331
331 1241
1241 331
331 1244
1244 331
331 1350
1350 331
331 1405
1405 331
331 1499
1499 331
331 1517
1517 331
332 359
359 332
332 410
410 332
332 1188
1188 332
332 1193
1193 332
332 1198
1198 332
332 1277
1277 332
332 1424
1424 332
332 1808
1808 332
332 1898
1898 332
333 612
612 333
333 763
763 333
333 1064
1064 333
333 1860
1860 333
334 643
643 334
334 875
875 334
334 1278
1278 334
334 1872
1872 334
334 1937
1937 334
335 739
739 335
335 878
878 335
335 983
983 335
335 1584
1584 335
335 1808
1808 335
335 1934
1934 335
335 1983
1983 335
336 343
343 336
336 643
643 336
336 857
857 336
336 936
936 336
336 1142
1142 336
336 1521
1521 336
336 1896
1896 336
336 1946
1946 336
337 685
685 337
337 762
762 337
337 783
783 337
337 879
879 337
337 957
957 337
337 1492
1492 337
337 1834
1834 337
338 635
635 338
338 1118
1118 338
338 1538
1538 338
338 1806
1806 338
338 1981
1981 338
339 447
447 339
339 955
955 339
339 1180
1180 339
339 1417
1417 339
339 1602
1602 339
339 1656
1656 339
339 1912
1912 339
340 421
421 340
340 431
431 340
340 869
869 340
340 1117
1117 340
340 1693
1693 340
340 1806
1806 340
340 1833
1833 340
341 650
650 341
341 705
705 341
341 742
742 341
341 1407
1407 341
341 1669
1669 341
341 1850
1850 341
342 511
511 342
342 790
790 342
342 883
883 342
342 1253
1253 342
342 1587
1587 342
342 1592
1592 342
343 1125
1125 343
343 1699
1699 343
344 352
352 344
344 698
698 344
344 1016
1016 344
344 1116
1116 344
344 1557
1557 344
345 605
605 345
345 1387
1387 345
345 1592
1592 345
345 1698
1698 345
345 1801
1801 345
345 1938
1938 345
345 1992
1992 345
346 391
391 346
346 623
623 346
346 889
889 346
346 976
976 346
346 1142
1142 346
346 1168
1168 346
347 570
570 347
347 824
824 347
347 1145
1145 347
347 1191
1191 347
347 1224
1224 347
347 1284
1284 347
347 1705
1705 347
347 1727
1727 347
347 1865
1865 347
348 371
371 348
348 412
412 348
348 508
508 348
348 1422
1422 348
348 1653
1653 348
348 1794
1794 348
349 460
460 349
349 1012
1012 349
349 1228
1228 349
349 1334
1334 349
349 1346
1346 349
349 1403
1403 349
349 1487
1487 349
349 1684
1684 349
350 390
390 350
350 537
537 350
350 550
550 350
350 628
628 350
350 693
693 350
350 1068
1068 350
350 1179
1179 350
350 1333
1333 350
350 1563
1563 350
350 1667
1667 350
350 1790
1790 350
350 1940
1940 350
350 1999
1999 350
351 629
629 351
351 633
633 351
351 1176
1176 351
351 1346
1346 351
351 1480
1480 351
351 1673
1673 351
351 1861
1861 351
352 669
669 352
352 922
922 352
352 1106
1106 352
353 364
364 353
353 665
665 353
353 675
675 353
353 880
880 353
353 1043
1043 353
353 1152
1152 353
353 1235
1235 353
353 1242
1242 353
353 1317
1317 353
353 1777
1777 353
353 1872
1872 353
353 1945
1945 353
354 357
357 354
354 413
413 354
354 684
684 354
354 1094
1094 354
354 1470
1470 354
354 1709
1709 354
355 679
679 355
355 841
841 355
355 1112
1112 355
355 1828
1828 355
355 1975
1975 355
356 784
784 356
356 850
850 356
356 1486
1486 356
356 1564
1564 356
356 1663
1663 356
356 1693
1693 356
356 1701
1701 356
357 480
480 357
357 531
531 357
357 610
610 357
357 693
693 357
357 1008
1008 357
357 1014
1014 357
357 1344
1344 357
357 1570
1570 357
358 1036
1036 358
358 1097
1097 358
358 1677
1677 358
358 1938
1938 358
359 988
988 359
359 1095
1095 359
359 1236
1236 359
359 1494
1494 359
359 1561
1561 359
360 657
657 360
360 689
689 360
360 757
757 360
360 898
898 360
360 967
967 360
360 1116
1116 360
360 1451
1451 360
360 1524
1524 360
360 1781
1781 360
361 600
600 361
361 641
641 361
361 711
711 361
361 1149
1149 361
361 1203
1203 361
361 1225
1225 361
361 1288
1288 361
362 390
390 362
362 613
613 362
362 1178
1178 362
362 1339
1339 362
362 1632
1632 362
363 467
467 363
363 925
925 363
363 987
987 363
363 1126
1126 363
363 1195
1195 363
363 1704
1704 363
363 1765
1765 363
363 1867
1867 363
364 431
431 364
364 937
937 364
364 1303
1303 364
364 1599
1599 364
364 1971
1971 364
365 444
444 365
365 547
547 365
365 1453
1453 365
366 561
561 366
366 847
847 366
366 1115
1115 366
366 1372
1372 366
366 1854
1854 366
366 1905
1905 366
367 930
930 367
367 984
984 367
367 1452
1452 367
367 1698
1698 367
367 1737
1737 367
367 1986
1986 367
368 546
546 368
368 593
593 368
368 749
749 368
368 1517
1517 368
368 1541
1541 368
368 1595
1595 368
368 1751
1751 368
368 1925
1925 368
369 410
410 369
369 604
604 369
369 750
750 369
369 842
842 369
369 1134
1134 369
369 1456
1456 369
369 1768
1768 369
369 1777
1777 369
369 1816
1816 369
370 571
571 370
370 587
587 370
370 858
858 370
370 1188
1188 370
371 491
491 371
371 541
541 371
371 941
941 371
371 1108
1108 371
371 1123
1123 371
372 494
494 372
372 518
518 372
372 1155
1155 372
372 1163
1163 372
372 1307
1307 372
372 1855
1855 372
372 1952
1952 372
373 454
454 373
373 792
792 373
373 874
874 373
373 985
985 373
373 1087
1087 373
374 737
737 374
374 878
878 374
374 980
980 374
374 1087
1087 374
374 1549
1549 374
374 1996
1996 374
375 703
703 375
375 805
805 375
375 1055
1055 375
375 1321
1321 375
375 1376
1376 375
375 1732
1732 375
375 1895
1895 375
375 1995
1995 375
376 392
392 376
376 681
681 376
376 709
709 376
376 1055
1055 376
376 1524
1524 376
376 1527
1527 376
376 1704
1704 376
376 1721
1721 376
376 1733
1733 376
376 1755
1755 376
376 1999
1999 376
377 394
394 377
377 660
660 377
377 1145
1145 377
377 1149
1149 377
377 1299
1299 377
377 1866
1866 377
378 474
474 378
378 606
606 378
378 861
861 378
378 865
865 378
378 927
927 378
378 999
999 378
378 1188
1188 378
378 1594
1594 378
378 1907
1907 378
379 585
585 379
379 721
721 379
379 793
793 379
379 1058
1058 379
379 1284
1284 379
379 1295
1295 379
379 1383
1383 379
379 1583
1583 379
379 1592
1592 379
379 1766
1766 379
379 1860
1860 379
380 1108
1108 380
381 462
462 381
381 616
616 381
381 683
683 381
381 1172
1172 381
381 1535
1535 381
381 1574
1574 381
381 1914
1914 381
381 1954
1954 381
382 397
397 382
382 1308
1308 382
382 1329
1329 382
382 1640
1640 382
382 1685
1685 382
383 1101
1101 383
383 1500
1500 383
384 633
633 384
384 867
867 384
384 1342
1342 384
384 1707
1707 384
384 1952
1952 384
385 431
431 385
385 494
494 385
385 796
796 385
385 909
909 385
385 1092
1092 385
385 1196
1196 385
385 1475
1475 385
385 1593
1593 385
385 1650
1650 385
386 546
546 386
386 573
573 386
386 585
585 386
386 714
714 386
386 966
966 386
386 1785
1785 386
387 434
434 387
387 752
752 387
387 902
902 387
387 1367
1367 387
387 1713
1713 387
387 1961
1961 387
388 1862
1862 388
389 981
981 389
389 1040
1040 389
389 1308
1308 389
389 1473
1473 389
389 1945
1945 389
390 784
784 390
390 932
932 390
390 966
966 390
390 1122
1122 390
390 1445
1445 390
390 1520
1520 390
390 1758
1758 390
390 1806
1806 390
390 1921
1921 390
391 431
431 391
391 443
443 391
391 448
448 391
391 582
582 391
391 653
653 391
391 754
754 391
391 928
928 391
391 954
954 391
391 1285
1285 391
391 1461
1461 391
391 1935
1935 391
392 1953
1953 392
393 673
673 393
393 852
852 393
393 1199
1199 393
393 1812
1812 393
394 629
629 394
394 863
863 394
394 1075
1075 394
394 1317
1317 394
394 1434
1434 394
394 1510
1510 394
394 1538
1538 394
394 1587
1587 394
394 1743
1743 394
394 1841
1841 394
395 600
600 395
395 1142
1142 395
395 1983
1983 395
396 566
566 396
396 1059
1059 396
396 1111
1111 396
396 1493
1493 396
396 1611
1611 396
396 1929
1929 396
397 473
473 397
397 756
756 397
397 804
804 397
397 884
884 397
397 888
888 397
397 1112
1112 397
397 1371
1371 397
397 1539
1539 397
397 1617
1617 397
398 774
774 398
398 810
810 398
398 1225
1225 398
398 1285
1285 398
398 1805
1805 398
399 465
465 399
399 717
717 399
399 1500
1500 399
399 1705
1705 399
400 666
666 400
400 835
835 400
400 1302
1302 400
400 1364
1364 400
400 1496
1496 400
400 1666
1666 400
400 1704
1704 400
400 1897
1897 400
401 647
647 401
401 898
898 401
401 903
903 401
401 991
991 401
401 1127
1127 401
401 1160
1160 401
401 1414
1414 401
401 1679
1679 401
401 1694
1694 401
401 1820
1820 401
402 962
962 402
402 1095
1095 402
402 1689
1689 402
403 518
518 403
403 537
537 403
403 590
590 403
403 834
834 403
403 872
872 403
403 1009
1009 403
403 1076
1076 403
403 1747
1747 403
404 439
439 404
404 621
621 404
404 702
702 404
404 710
710 404
404 741
741 404
404 787
787 404
404 838
838 404
404 913
913 404
404 1163
1163 404
404 1327
1327 404
404 1512
1512 404
404 1587
1587 404
404 1593
1593 404
404 1635
1635 404
404 1905
1905 404
404 1979
1979 404
405 452
452 405
405 957
957 405
405 1252
1252 405
405 1409
1409 405
405 1490
1490 405
405 1609
1609 405
405 1653
1653 405
405 1839
1839 405
406 470
470 406
406 638
638 406
406 1035
1035 406
406 1484
1484 406
406 1795
1795 406
406 1906
1906 406
406 1922
1922 406
407 501
501 407
407 932
932 407
407 1081
1081 407
407 1412
1412 407
408 495
495 408
408 645
645 408
408 1527
1527 408
408 1686
1686 408
409 619
619 409
409 808
808 409
409 955
955 409
409 1070
1070 409
409 1286
1286 409
409 1634
1634 409
409 1963
1963 409
410 535
535 410
410 624
624 410
411 812
812 411
411 838
838 411
411 886
886 411
411 1188
1188 411
411 1365
1365 411
411 1860
1860 411
412 470
470 412
412 505
505 412
412 1221
1221 412
412 1362
1362 412
412 1667
1667 412
412 1721
1721 412
412 1823
1823 412
413 892
892 413
413 897
897 413
413 1189
1189 413
413 1505
1505 413
414 547
547 414
414 616
616 414
414 830
830 414
414 890
890 414
414 1217
1217 414
414 1524
1524 414
414 1774
1774 414
415 462
462 415
415 674
674 415
415 899
899 415
415 1345
1345 415
416 418
418 416
416 630
630 416
416 1138
1138 416
416 1155
1155 416
416 1364
1364 416
416 1388
1388 416
416 1573
1573 416
416 1920
1920 416
417 1026
1026 417
417 1251
1251 417
417 1343
1343 417
417 1762
1762 417
418 663
663 418
418 789
789 418
418 1086
1086 418
418 1583
1583 418
419 1178
1178 419
419 1231
1231 419
419 1350
1350 419
419 1517
1517 419
420 469
469 420
420 534
534 420
420 644
644 420
420 803
803 420
420 883
883 420
420 1028
1028 420
420 1117
1117 420
420 1843
1843 420
421 913
913 421
421 1327
1327 421
421 1516
1516 421
421 1886
1886 421
421 1959
1959 421
422 944
944 422
422 1283
1283 422
422 1513
1513 422
422 1593
1593 422
422 1737
1737 422
422 1844
1844 422
422 1848
1848 422
422 1938
1938 422
422 1939
1939 422
422 1951
1951 422
423 472
472 423
423 548
548 423
423 680
680 423
423 808
808 423
423 1042
1042 423
423 1093
1093 423
423 1291
1291 423
424 582
582 424
424 1172
1172 424
424 1205
1205 424
424 1285
1285 424
424 1297
1297 424
424 1655
1655 424
424 1814
1814 424
424 1816
1816 424
424 1993
1993 424
425 488
488 425
425 1090
1090 425
426 442
442 426
426 544
544 426
426 1045
1045 426
426 1124
1124 426
426 1365
1365 426
427 1530
1530 427
427 1683
1683 427
427 1764
1764 427
428 505
505 428
428 532
532 428
429 447
447 429
429 954
954 429
429 1183
1183 429
429 1476
1476 429
429 1863
1863 429
430 616
616 430
430 636
636 430
430 719
719 430
430 908
908 430
430 1073
1073 430
430 1727
1727 430
430 1966
1966 430
431 567
567 431
431 681
681 431
431 859
859 431
431 1065
1065 431
431 1140
1140 431
431 1198
1198 431
431 1990
1990 431
432 596
596 432
432 1182
1182 432
432 1688
1688 432
432 1829
1829 432
432 1944
1944 432
433 593
593 433
433 783
783 433
433 1296
1296 433
433 1386
1386 433
433 1418
1418 433
433 1699
1699 433
433 1995
1995 433
434 629
629 434
434 852
852 434
434 911
911 434
434 1506
1506 434
434 1762
1762 434
435 665
665 435
435 944
944 435
435 1302
1302 435
435 1565
1565 435
436 582
582 436
436 979
979 436
436 1433
1433 436
436 1681
1681 436
436 1789
1789 436
437 678
678 437
437 1631
1631 437
437 1649
1649 437
438 573
573 438
438 902
902 438
438 1214
1214 438
438 1233
1233 438
438 1353
1353 438
438 1637
1637 438
438 1775
1775 438
439 726
726 439
439 824
824 439
439 932
932 439
439 994
994 439
439 1509
1509 439
439 1586
1586 439
439 1713
1713 439
439 1752
1752 439
439 1769
1769 439
440 491
491 440
440 527
527 440
440 754
754 440
440 1171
1171 440
440 1319
1319 440
440 1807
1807 440
441 511
511 441
441 869
869 441
441 911
911 441
441 1480
1480 441
441 1974
1974 441
442 703
703 442
442 1235
1235 442
442 1899
1899 442
442 1960
1960 442
443 473
473 443
443 663
663 443
443 1085
1085 443
443 1265
1265 443
443 1361
1361 443
443 1585
1585 443
443 1676
1676 443
443 1854
1854 443
444 478
478 444
444 662
662 444
444 1111
1111 444
444 1204
1204 444
444 1424
1424 444
444 1574
1574 444
444 1587
1587 444
444 1787
1787 444
444 1790
1790 444
445 1106
1106 445
445 1325
1325 445
445 1667
1667 445
445 1685
1685 445
445 1993
1993 445
446 674
674 446
446 1087
1087 446
446 1833
1833 446
447 644
644 447
447 1159
1159 447
447 1228
1228 447
447 1493
1493 447
447 1662
1662 447
447 1787
1787 447
448 482
482 448
448 637
637 448
448 1327
1327 448
448 1537
1537 448
448 1585
1585 448
448 1615
1615 448
448 1730
1730 448
448 1977
1977 448
449 614
614 449
449 999
999 449
449 1481
1481 449
450 607
607 450
450 1618
1618 450
450 1790
1790 450
450 1843
1843 450
450 1860
1860 450
450 1911
1911 450
450 1994
1994 450
451 599
599 451
451 646
646 451
451 894
894 451
451 1426
1426 451
451 1542
1542 451
451 1892
1892 451
451 1982
1982 451
452 504
504 452
452 677
677 452
452 944
944 452
452 1526
1526 452
452 1614
1614 452
452 1624
1624 452
452 1640
1640 452
452 1705
1705 452
453 837
837 453
453 1214
1214 453
453 1588
1588 453
453 1924
1924 453
454 661
661 454
454 1002
1002 454
454 1512
1512 454
454 1637
1637 454
454 1744
1744 454
455 901
901 455
455 905
905 455
455 1714
1714 455
456 482
482 456
456 1076
1076 456
456 1161
1161 456
456 1253
1253 456
456 1630
1630 456
456 1643
1643 456
457 480
480 457
457 499
499 457
457 667
667 457
457 703
703 457
457 1106
1106 457
457 1216
1216 457
457 1250
1250 457
457 1386
1386 457
457 1477
1477 457
458 601
601 458
458 890
890 458
458 906
906 458
458 1032
1032 458
458 1205
1205 458
458 1547
1547 458
458 1616
1616 458
459 645
645 459
459 1325
1325 459
460 623
623 460
460 1198
1198 460
460 1325
1325 460
460 1612
1612 460
460 1773
1773 460
461 766
766 461
461 1196
1196 461
461 1951
1951 461
462 608
608 462
462 774
774 462
462 834
834 462
462 1181
1181 462
462 1592
1592 462
462 1702
1702 462
462 1841
1841 462
462 1970
1970 462
463 935
935 463
463 1127
1127 463
463 1435
1435 463
463 1580
1580 463
464 790
790 464
464 1514
1514 464
465 914
914 465
465 1235
1235 465
466 518
518 466
466 927
927 466
466 977
977 466
466 1209
1209 466
466 1265
1265 466
466 1405
1405 466
466 1608
1608 466
466 1772
1772 466
466 1793
1793 466
466 1942
1942 466
467 615
615 467
467 1526
1526 467
467 1592
1592 467
468 1173
1173 468
468 1717
1717 468
468 1803
1803 468
469 505
505 469
469 1628
1628 469
469 1680
1680 469
469 1830
1830 469
470 872
872 470
470 1273
1273 470
470 1470
1470 470
470 1816
1816 470
470 1972
1972 470
471 594
594 471
471 773
773 471
471 841
841 471
471 1021
1021 471
471 1061
1061 471
471 1213
1213 471
471 1498
1498 471
471 1704
1704 471
471 1792
1792 471
471 1974
1974 471
472 526
526 472
472 669
669 472
472 1200
1200 472
472 1802
1802 472
472 1849
1849 472
473 768
768 473
473 1032
1032 473
474 538
538 474
474 555
555 474
474 639
639 474
474 779
779 474
474 780
780 474
474 1206
1206 474
474 1277
1277 474
474 1617
1617 474
474 1779
1779 474
474 1877
1877 474
474 1960
1960 474
475 856
856 475
475 1050
1050 475
475 1201
1201 475
475 1542
1542 475
475 1772
1772 475
476 510
510 476
476 544
544 476
476 579
579 476
476 797
797 476
476 974
974 476
476 1237
1237 476
476 1504
1504 476
476 1798
1798 476
477 525
525 477
477 843
843 477
477 1440
1440 477
477 1906
1906 477
477 1974
1974 477
478 604
604 478
478 714
714 478
478 721
721 478
478 758
758 478
478 877
877 478
478 912
912 478
478 1374
1374 478
478 1927
1927 478
479 993
993 479
479 1156
1156 479
479 1202
1202 479
479 1799
1799 479
479 1969
1969 479
480 863
863 480
480 1074
1074 480
480 1365
1365 480
480 1384
1384 480
480 1960
1960 480
481 713
713 481
481 784
784 481
481 973
973 481
481 1400
1400 481
481 1519
1519 481
481 1565
1565 481
482 492
492 482
482 554
554 482
482 827
827 482
482 1173
1173 482
482 1241
1241 482
482 1341
1341 482
482 1439
1439 482
482 1896
1896 482
482 1931
1931 482
482 1949
1949 482
483 898
898 483
483 1007
1007 483
483 1069
1069 483
483 1290
1290 483
483 1322
1322 483
483 1339
1339 483
483 1402
1402 483
483 1425
1425 483
483 1491
1491 483
483 1693
1693 483
483 1710
1710 483
484 570
570 484
484 824
824 484
484 929
929 484
484 952
952 484
484 1571
1571 484
484 1972
1972 484
485 584
584 485
485 586
586 485
485 999
999 485
485 1195
1195 485
485 1225
1225 485
485 1268
1268 485
486 711
711 486
486 751
751 486
486 1042
1042 486
486 1421
1421 486
486 1654
1654 486
486 1684
1684 486
486 1819
1819 486
486 1995
1995 486
487 1169
1169 487
487 1498
1498 487
487 1795
1795 487
487 1847
1847 487
488 538
538 488
488 1002
1002 488
488 1038
1038 488
488 1142
1142 488
488 1319
1319 488
488 1455
1455 488
489 691
691 489
489 1129
1129 489
489 1348
1348 489
489 1563
1563 489
489 1619
1619 489
489 1645
1645 489
489 1704
1704 489
489 1815
1815 489
490 556
556 490
490 615
615 490
490 667
667 490
490 935
935 490
490 1018
1018 490
490 1060
1060 490
490 1151
1151 490
490 1306
1306 490
490 1460
1460 490
490 1829
1829 490
490 1882
1882 490
490 1943
1943 490
491 556
556 491
491 642
642 491
491 1107
1107 491
491 1191
1191 491
491 1427
1427 491
491 1518
1518 491
491 1739
1739 491
491 1961
1961 491
492 629
629 492
492 842
842 492
492 925
925 492
492 1131
1131 492
492 1390
1390 492
492 1599
1599 492
493 495
495 493
493 1359
1359 493
493 1511
1511 493
493 1575
1575 493
494 566
566 494
494 968
968 494
494 1503
1503 494
494 1597
1597 494
494 1676
1676 494
494 1822
1822 494
494 1861
1861 494
495 545
545 495
495 786
786 495
495 1481
1481 495
495 1512
1512 495
495 1528
1528 495
496 636
636 496
496 651
651 496
496 897
897 496
496 1063
1063 496
496 1221
1221 496
496 1282
1282 496
496 1307
1307 496
496 1560
1560 496
496 1806
1806 496
497 617
617 497
497 905
905 497
497 1034
1034 497
497 1060
1060 497
497 1440
1440 497
497 1457
1457 497
497 1697
1697 497
497 1838
1838 497
497 1893
1893 497
498 580
580 498
498 601
601 498
498 628
628 498
498 1074
1074 498
498 1217
1217 498
498 1408
1408 498
498 1531
1531 498
498 1579
1579 498
499 542
542 499
499 1195
1195 499
499 1365
1365 499
499 1594
1594 499
499 1646
1646 499
500 533
533 500
500 572
572 500
500 602
602 500
500 716
716 500
500 867
867 500
500 1319
1319 500
500 1381
1381 500
500 1541
1541 500
500 1661
1661 500
500 1812
1812 500
500 1972
1972 500
501 519
519 501
501 551
551 501
501 690
690 501
501 700
700 501
501 840
840 501
501 849
849 501
501 1428
1428 501
502 539
539 502
502 710
710 502
502 1210
1210 502
502 1298
1298 502
502 1532
1532 502
502 1584
1584 502
502 1594
1594 502
502 1990
1990 502
503 1038
1038 503
503 1302
1302 503
503 1923
1923 503
504 711
711 504
504 738
738 504
504 1092
1092 504
504 1470
1470 504
504 1655
1655 504
505 583
583 505
505 1872
1872 505
506 945
945 506
506 1047
1047 506
507 591
591 507
507 865
865 507
507 1097
1097 507
507 1400
1400 507
507 1718
1718 507
507 1843
1843 507
507 1953
1953 507
508 746
746 508
508 1678
1678 508
508 1679
1679 508
508 1894
1894 508
509 583
583 509
509 710
710 509
509 759
759 509
509 1273
1273 509
509 1350
1350 509
509 1482
1482 509
510 713
713 510
510 844
844 510
510 870
870 510
510 1087
1087 510
510 1106
1106 510
510 1263
1263 510
510 1410
1410 510
510 1498
1498 510
510 1818
1818 510
511 522
522 511
511 853
853 511
511 928
928 511
511 939
939 511
511 1312
1312 511
511 1363
1363 511
511 1369
1369 511
511 1492
1492 511
511 1709
1709 511
511 1870
1870 511
512 596
596 512
512 758
758 512
512 820
820 512
512 893
893 512
512 1203
1203 512
512 1370
1370 512
512 1438
1438 512
512 1597
1597 512
512 1630
1630 512
512 1812
1812 512
512 1876
1876 512
513 852
852 513
513 1094
1094 513
513 1616
1616 513
514 824
824 514
514 845
845 514
514 1111
1111 514
514 1414
1414 514
514 1931
1931 514
515 668
668 515
515 903
903 515
515 936
936 515
515 965
965 515
515 1065
1065 515
515 1176
1176 515
515 1256
1256 515
515 1299
1299 515
515 1486
1486 515
515 1520
1520 515
515 1897
1897 515
515 1986
1986 515
516 611
611 516
516 1078
1078 516
516 1238
1238 516
516 1246
1246 516
516 1943
1943 516
517 586
586 517
517 779
779 517
517 1787
1787 517
518 590
590 518
518 894
894 518
518 1336
1336 518
518 1516
1516 518
518 1948
1948 518
519 573
573 519
519 663
663 519
519 728
728 519
519 910
910 519
519 1859
1859 519
520 795
795 520
520 1047
1047 520
520 1109
1109 520
521 848
848 521
521 1060
1060 521
521 1091
1091 521
521 1239
1239 521
521 1826
1826 521
522 647
647 522
522 682
682 522
522 777
777 522
522 1075
1075 522
522 1563
1563 522
522 1823
1823 522
522 1991
1991 522
523 727
727 523
523 807
807 523
523 959
959 523
523 1434
1434 523
523 1534
1534 523
523 1775
1775 523
523 1790
1790 523
523 1805
1805 523
523 1862
1862 523
523 1999
1999 523
524 963
963 524
524 1394
1394 524
524 1486
1486 524
524 1956
1956 524
525 635
635 525
525 760
760 525
525 1224
1224 525
525 1417
1417 525
525 1515
1515 525
526 586
586 526
526 904
904 526
526 1027
1027 526
526 1355
1355 526
526 1365
1365 526
526 1610
1610 526
526 1833
1833 526
527 588
588 527
527 634
634 527
527 657
657 527
527 746
746 527
527 843
843 527
527 1527
1527 527
527 1945
1945 527
528 573
573 528
528 1033
1033 528
528 1558
1558 528
529 632
632 529
529 793
793 529
529 943
943 529
529 1038
1038 529
529 1126
1126 529
529 1159
1159 529
529 1253
1253 529
529 1408
1408 529
530 583
583 530
530 685
685 530
530 737
737 530
530 770
770 530
530 925
925 530
530 1124
1124 530
530 1211
1211 530
530 1335
1335 530
530 1959
1959 530
531 540
540 531
531 577
577 531
531 684
684 531
531 855
855 531
531 926
926 531
532 746
746 532
532 915
915 532
532 1183
1183 532
532 1225
1225 532
532 1933
1933 532
532 1971
1971 532
533 635
635 533
533 1273
1273 533
533 1850
1850 533
534 779
779 534
534 1407
1407 534
534 1413
1413 534
534 1616
1616 534
534 1721
1721 534
535 1408
1408 535
535 1491
1491 535
535 1493
1493 535
535 1525
1525 535
535 1547
1547 535
535 1576
1576 535
535 1592
1592 535
535 1794
1794 535
536 637
637 536
536 715
715 536
536 784
784 536
536 837
837 536
536 1213
1213 536
536 1246
1246 536
536 1517
1517 536
536 1763
1763 536
536 1796
1796 536
537 690
690 537
537 1019
1019 537
537 1393
1393 537
537 1498
1498 537
537 1647
1647 537
538 560
560 538
538 670
670 538
538 802
802 538
538 1047
1047 538
538 1600
1600 538
539 1659
1659 539
539 1922
1922 539
540 1009
1009 540
540 1423
1423 540
540 1671
1671 540
540 1859
1859 540
541 802
802 541
541 989
989 541
542 573
573 542
542 828
828 542
542 874
874 542
542 903
903 542
542 952
952 542
542 953
953 542
542 1226
1226 542
542 1269
1269 542
542 1394
1394 542
542 1510
1510 542
542 1595
1595 542
542 1623
1623 542
542 1702
1702 542
542 1749
1749 542
542 1983
1983 542
543 569
569 543
543 1068
1068 543
543 1200
1200 543
543 1655
1655 543
544 1846
1846 544
544 1997
1997 544
545 1105
1105 545
545 1353
1353 545
545 1474
1474 545
546 700
700 546
546 732
732 546
546 754
754 546
546 790
790 546
546 1105
1105 546
546 1465
1465 546
546 1785
1785 546
546 1996
1996 546
547 680
680 547
547 779
779 547
547 1195
1195 547
547 1914
1914 547
548 672
672 548
548 880
880 548
548 1131
1131 548
548 1319
1319 548
548 1387
1387 548
548 1564
1564 548
548 1880
1880 548
548 1981
1981 548
549 583
583 549
549 670
670 549
549 681
681 549
549 908
908 549
549 1143
1143 549
549 1203
1203 549
549 1443
1443 549
549 1510
1510 549
549 1672
1672 549
550 880
880 550
550 899
899 550
550 966
966 550
550 980
980 550
550 1050
1050 550
550 1098
1098 550
550 1294
1294 550
550 1546
1546 550
551 585
585 551
551 630
630 551
551 659
659 551
551 1084
1084 551
551 1171
1171 551
551 1197
1197 551
551 1743
1743 551
551 1784
1784 551
551 1854
1854 551
552 974
974 552
552 1040
1040 552
552 1131
1131 552
552 1457
1457 552
552 1504
1504 552
552 1508
1508 552
552 1609
1609 552
553 774
774 553
553 807
807 553
553 1921
1921 553
554 818
818 554
554 1170
1170 554
554 1264
1264 554
554 1291
1291 554
554 1313
1313 554
554 1540
1540 554
554 1990
1990 554
555 624
624 555
555 863
863 555
555 1245
1245 555
555 1433
1433 555
555 1562
1562 555
555 1699
1699 555
556 1013
1013 556
556 1418
1418 556
556 1984
1984 556
557 565
565 557
557 596
596 557
557 688
688 557
557 701
701 557
557 762
762 557
557 832
832 557
557 929
929 557
557 1128
1128 557
557 1660
1660 557
557 1896
1896 557
557 1902
1902 557
558 1057
1057 558
558 1104
1104 558
558 1529
1529 558
558 1784
1784 558
558 1847
1847 558
559 705
705 559
559 1855
1855 559
560 724
724 560
560 1804
1804 560
560 1866
1866 560
560 1891
1891 560
561 585
585 561
561 1117
1117 561
561 1233
1233 561
561 1277
1277 561
561 1552
1552 561
562 568
568 562
562 621
621 562
562 907
907 562
562 1492
1492 562
562 1636
1636 562
562 1707
1707 562
562 1984
1984 562
563 604
604 563
563 1314
1314 563
563 1350
1350 563
563 1356
1356 563
563 1712
1712 563
563 1714
1714 563
563 1966
1966 563
564 645
645 564
564 689
689 564
564 1383
1383 564
564 1604
1604 564
564 1916
1916 564
564 1983
1983 564
565 982
982 565
565 1922
1922 565
566 873
873 566
566 952
952 566
566 1043
1043 566
566 1952
1952 566
567 599
599 567
567 870
870 567
567 1676
1676 567
567 1722
1722 567
567 1870
1870 567
568 773
773 568
568 885
885 568
568 924
924 568
568 1026
1026 568
568 1036
1036 568
568 1077
1077 568
568 1328
1328 568
568 1369
1369 568
568 1774
1774 568
569 824
824 569
569 828
828 569
569 1687
1687 569
569 1912
1912 569
569 1929
1929 569
569 1949
1949 569
570 671
671 570
570 1110
1110 570
570 1244
1244 570
570 1484
1484 570
570 1759
1759 570
570 1808
1808 570
570 1927
1927 570
570 1962
1962 570
571 652
652 571
571 798
798 571
571 994
994 571
571 1277
1277 571
571 1331
1331 571
571 1581
1581 571
571 1592
1592 571
572 581
581 572
572 731
731 572
572 1266
1266 572
573 1028
1028 573
573 1043
1043 573
573 1316
1316 573
573 1840
1840 573
574 725
725 574
574 1085
1085 574
574 1104
1104 574
574 1363
1363 574
574 1452
1452 574
574 1569
1569 574
574 1673
1673 574
574 1726
1726 574
574 1763
1763 574
575 1279
1279 575
575 1293
1293 575
575 1509
1509 575
575 1639
1639 575
576 610
610 576
576 1242
1242 576
576 1507
1507 576
576 1659
1659 576
576 1699
1699 576
576 1778
1778 576
577 773
773 577
577 838
838 577
577 1152
1152 577
577 1266
1266 577
577 1531
1531 577
577 1645
1645 577
577 1797
1797 577
577 1897
1897 577
578 622
622 578
578 737
737 578
578 1313
1313 578
578 1373
1373 578
578 1392
1392 578
578 1861
1861 578
579 1116
1116 579
579 1268
1268 579
579 1442
1442 579
579 1794
1794 579
579 1894
1894 579
580 696
696 580
580 826
826 580
580 1176
1176 580
580 1198
1198 580
580 1356
1356 580
580 1520
1520 580
580 1785
1785 580
580 1795
1795 580
580 1942
1942 580
580 1962
1962 580
581 1156
1156 581
581 1299
1299 581
581 1661
1661 581
582 956
956 582
582 1270
1270 582
582 1282
1282 582
582 1722
1722 582
583 714
714 583
583 791
791 583
583 950
950 583
583 1042
1042 583
583 1057
1057 583
583 1194
1194 583
583 1318
1318 583
583 1514
1514 583
584 873
873 584
584 971
971 584
584 1109
1109 584
584 1825
1825 584
584 1912
1912 584
585 1161
1161 585
585 1277
1277 585
585 1520
1520 585
585 1614
1614 585
586 672
672 586
586 778
778 586
586 1197
1197 586
586 1262
1262 586
586 1707
1707 586
586 1771
1771 586
587 1200
1200 587
587 1304
1304 587
587 1946
1946 587
587 1947
1947 587
588 681
681 588
588 757
757 588
588 1459
1459 588
588 1836
1836 588
588 1876
1876 588
588 1891
1891 588
589 755
755 589
589 1123
1123 589
589 1129
1129 589
589 1177
1177 589
589 1317
1317 589
589 1399
1399 589
589 1419
1419 589
589 1727
1727 589
590 1172
1172 590
590 1638
1638 590
591 805
805 591
591 863
863 591
591 880
880 591
591 987
987 591
591 1297
1297 591
591 1373
1373 591
591 1525
1525 591
591 1637
1637 591
591 1714
1714 591
591 1826
1826 591
592 678
678 592
592 1475
1475 592
592 1857
1857 592
592 1876
1876 592
593 620
620 593
593 692
692 593
593 725
725 593
593 1230
1230 593
593 1277
1277 593
593 1479
1479 593
593 1480
1480 593
593 1589
1589 593
593 1635
1635 593
594 923
923 594
594 935
935 594
594 1013
1013 594
594 1614
1614 594
594 1686
1686 594
595 772
772 595
595 1079
1079 595
595 1493
1493 595
595 1526
1526 595
595 1909
1909 595
595 1974
1974 595
596 907
907 596
596 919
919 596
596 1493
1493 596
597 994
994 597
597 1097
1097 597
597 1338
1338 597
597 1585
1585 597
597 1591
1591 597
597 1699
1699 597
597 1768
1768 597
598 623
623 598
598 837
837 598
598 871
871 598
598 1416
1416 598
598 1730
1730 598
598 1806
1806 598
599 938
938 599
599 1044
1044 599
599 1213
1213 599
599 1247
1247 599
599 1329
1329 599
599 1356
1356 599
599 1377
1377 599
599 1936
1936 599
600 645
645 600
600 652
652 600
600 713
713 600
600 947
947 600
600 1169
1169 600
600 1574
1574 600
600 1600
1600 600
600 1851
1851 600
600 1862
1862 600
601 1092
1092 601
601 1120
1120 601
602 708
708 602
602 1947
1947 602
602 1992
1992 602
603 779
779 603
603 824
824 603
603 1077
1077 603
603 1083
1083 603
603 1360
1360 603
603 1414
1414 603
603 1560
1560 603
604 694
694 604
604 696
696 604
604 907
907 604
604 946
946 604
604 1091
1091 604
604 1229
1229 604
604 1478
1478 604
604 1689
1689 604
604 1754
1754 604
605 1109
1109 605
605 1644
1644 605
605 1814
1814 605
605 1829
1829 605
605 1863
1863 605
605 1955
1955 605
606 654
654 606
606 1320
1320 606
606 1402
1402 606
606 1562
1562 606
606 1692
1692 606
606 1741
1741 606
606 1774
1774 606
606 1920
1920 606
607 1003
1003 607
607 1005
1005 607
607 1169
1169 607
607 1434
1434 607
608 681
681 608
608 862
862 608
608 1225
1225 608
608 1285
1285 608
608 1413
1413 608
608 1590
1590 608
608 1850
1850 608
609 710
710 609
609 1883
1883 609
610 870
870 610
610 1175
1175 610
611 1393
1393 611
611 1724
1724 611
611 1807
1807 611
612 942
942 612
612 1083
1083 612
612 1444
1444 612
612 1493
1493 612
613 623
623 613
613 748
748 613
613 899
899 613
613 1060
1060 613
613 1191
1191 613
613 1862
1862 613
614 814
814 614
614 1120
1120 614
614 1202
1202 614
614 1410
1410 614
614 1794
1794 614
614 1912
1912 614
615 1254
1254 615
615 1607
1607 615
615 1714
1714 615
616 841
841 616
616 1068
1068 616
616 1251
1251 616
616 1277
1277 616
616 1369
1369 616
616 1370
1370 616
616 1643
1643 616
617 825
825 617
617 911
911 617
617 974
974 617
617 1467
1467 617
617 1529
1529 617
617 1924
1924 617
618 628
628 618
618 659
659 618
618 1006
1006 618
618 1103
1103 618
618 1230
1230 618
618 1255
1255 618
618 1620
1620 618
619 625
625 619
619 736
736 619
619 1164
1164 619
619 1709
1709 619
619 1822
1822 619
620 636
636 620
620 1118
1118 620
620 1199
1199 620
620 1527
1527 620
620 1660
1660 620
620 1846
1846 620
621 638
638 621
621 781
781 621
621 967
967 621
621 1502
1502 621
621 1932
1932 621
622 849
849 622
622 1123
1123 622
622 1301
1301 622
622 1872
1872 622
622 1907
1907 622
623 643
643 623
623 655
655 623
623 1451
1451 623
623 1486
1486 623
623 1546
1546 623
623 1584
1584 623
623 1767
1767 623
623 1903
1903 623
624 1631
1631 624
625 857
857 625
625 932
932 625
625 1090
1090 625
625 1947
1947 625
626 1002
1002 626
626 1190
1190 626
626 1530
1530 626
626 1581
1581 626
626 1654
1654 626
627 1314
1314 627
627 1514
1514 627
628 715
715 628
628 1033
1033 628
628 1145
1145 628
628 1462
1462 628
628 1815
1815 628
628 1912
1912 628
629 719
719 629
629 821
821 629
629 1065
1065 629
629 1277
1277 629
629 1738
1738 629
629 1746
1746 629
630 644
644 630
630 689
689 630
630 833
833 630
630 1100
1100 630
630 1121
1121 630
630 1286
1286 630
630 1682
1682 630
630 1867
1867 630
631 885
885 631
632 678
678 632
632 897
897 632
632 940
940 632
632 1005
1005 632
632 1175
1175 632
633 926
926 633
633 1015
1015 633
633 1080
1080 633
633 1234
1234 633
633 1609
1609 633
633 1687
1687 633
633 1769
1769 633
633 1953
1953 633
634 793
793 634
634 854
854 634
634 1700
1700 634
634 1714
1714 634
634 1993
1993 634
635 1204
1204 635
635 1280
1280 635
635 1320
1320 635
635 1652
1652 635
635 1674
1674 635
635 1679
1679 635
635 1686
1686 635
635 1754
1754 635
635 1779
1779 635
635 1927
1927 635
635 1957
1957 635
636 701
701 636
636 1272
1272 636
636 1525
1525 636
636 1657
1657 636
636 1864
1864 636
636 1926
1926 636
637 641
641 637
637 1091
1091 637
637 1328
1328 637
637 1724
1724 637
638 706
706 638
638 1122
1122 638
638 1911
1911 638
638 1971
1971 638
639 876
876 639
639 951
951 639
639 1254
1254 639
639 1296
1296 639
639 1299
1299 639
640 748
748 640
640 810
810 640
640 846
846 640
640 1097
1097 640
640 1232
1232 640
640 1620
1620 640
640 1883
1883 640
641 677
677 641
641 1128
1128 641
641 1553
1553 641
641 1702
1702 641
641 1939
1939 641
641 1944
1944 641
641 1967
1967 641
642 740
740 642
642 824
824 642
642 980
980 642
642 1233
1233 642
642 1434
1434 642
642 1605
1605 642
642 1683
1683 642
643 776
776 643
643 781
781 643
643 1310
1310 643
643 1625
1625 643
644 790
790 644
644 950
950 644
644 1036
1036 644
644 1095
1095 644
644 1408
1408 644
644 1476
1476 644
644 1492
1492 644
645 657
657 645
645 747
747 645
645 859
859 645
645 887
887 645
645 937
937 645
645 1004
1004 645
645 1435
1435 645
645 1670
1670 645
646 795
795 646
646 1993
1993 646
647 793
793 647
647 879
879 647
647 1029
1029 647
647 1271
1271 647
647 1484
1484 647
647 1620
1620 647
647 1677
1677 647
648 789
789 648
648 1025
1025 648
648 1575
1575 648
648 1681
1681 648
648 1692
1692 648
648 1744
1744 648
649 848
848 649
649 1110
1110 649
649 1189
1189 649
649 1217
1217 649
649 1443
1443 649
650 841
841 650
650 1219
1219 650
650 1283
1283 650
650 1335
1335 650
650 1373
1373 650
650 1696
1696 650
651 879
879 651
651 1121
1121 651
651 1174
1174 651
651 1956
1956 651
652 655
655 652
652 822
822 652
652 1248
1248 652
652 1542
1542 652
652 1698
1698 652
653 711
711 653
653 998
998 653
653 1165
1165 653
653 1219
1219 653
653 1464
1464 653
654 856
856 654
654 954
954 654
654 1588
1588 654
654 1775
1775 654
655 717
717 655
655 1258
1258 655
655 1335
1335 655
655 1388
1388 655
655 1464
1464 655
655 1474
1474 655
655 1505
1505 655
655 1552
1552 655
655 1576
1576 655
656 684
684 656
656 800
800 656
656 811
811 656
656 834
834 656
656 1464
1464 656
656 1514
1514 656
657 699
699 657
657 1036
1036 657
657 1059
1059 657
657 1528
1528 657
657 1541
1541 657
657 1798
1798 657
657 1958
1958 657
658 1028
1028 658
658 1280
1280 658
658 1303
1303 658
658 1981
1981 658
659 786
786 659
659 1062
1062 659
659 1295
1295 659
659 1546
1546 659
660 696
696 660
660 777
777 660
660 877
877 660
660 1056
1056 660
660 1746
1746 660
661 839
839 661
661 1059
1059 661
661 1149
1149 661
661 1171
1171 661
661 1379
1379 661
662 701
701 662
662 849
849 662
662 882
882 662
662 1488
1488 662
662 1740
1740 662
662 1873
1873 662
663 956
956 663
663 966
966 663
663 1160
1160 663
663 1322
1322 663
663 1375
1375 663
663 1605
1605 663
663 1832
1832 663
664 788
788 664
664 966
966 664
664 1391
1391 664
664 1431
1431 664
664 1764
1764 664
664 1908
1908 664
665 839
839 665
665 1160
1160 665
665 1480
1480 665
665 1653
1653 665
665 1659
1659 665
665 1699
1699 665
665 1838
1838 665
665 1855
1855 665
666 1007
1007 666
666 1120
1120 666
666 1312
1312 666
666 1646
1646 666
666 1879
1879 666
667 1208
1208 667
667 1283
1283 667
667 1437
1437 667
667 1506
1506 667
667 1728
1728 667
667 1838
1838 667
668 904
904 668
668 1050
1050 668
668 1101
1101 668
668 1462
1462 668
668 1616
1616 668
668 1860
1860 668
669 702
702 669
669 1062
1062 669
669 1131
1131 669
669 1307
1307 669
669 1374
1374 669
669 1494
1494 669
669 1626
1626 669
669 1735
1735 669
670 988
988 670
670 1919
1919 670
671 734
734 671
671 1023
1023 671
671 1058
1058 671
671 1497
1497 671
672 914
914 672
672 1324
1324 672
672 1347
1347 672
672 1487
1487 672
673 1588
1588 673
673 1646
1646 673
674 1123
1123 674
674 1196
1196 674
674 1225
1225 674
674 1426
1426 674
674 1535
1535 674
674 1591
1591 674
674 1997
1997 674
675 1099
1099 675
675 1316
1316 675
675 1483
1483 675
675 1615
1615 675
676 877
877 676
676 963
963 676
676 1510
1510 676
677 736
736 677
677 755
755 677
677 1305
1305 677
677 1495
1495 677
677 1763
1763 677
678 1446
1446 678
678 1681
1681 678
678 1847
1847 678
678 1924
1924 678
679 1109
1109 679
679 1333
1333 679
679 1383
1383 679
679 1454
1454 679
679 1459
1459 679
679 1495
1495 679
679 1499
1499 679
679 1674
1674 679
679 1794
1794 679
679 1961
1961 679
680 722
722 680
680 1040
1040 680
680 1437
1437 680
680 1475
1475 680
680 1536
1536 680
680 1716
1716 680
680 1750
1750 680
680 1873
1873 680
681 711
711 681
681 785
785 681
681 1411
1411 681
681 1707
1707 681
681 1759
1759 681
681 1877
1877 681
681 1918
1918 681
682 769
769 682
682 979
979 682
682 1063
1063 682
682 1279
1279 682
682 1436
1436 682
682 1686
1686 682
682 1750
1750 682
683 872
872 683
683 1122
1122 683
683 1364
1364 683
683 1778
1778 683
683 1842
1842 683
684 917
917 684
684 978
978 684
684 1351
1351 684
684 1521
1521 684
685 806
806 685
685 999
999 685
685 1395
1395 685
685 1470
1470 685
685 1528
1528 685
685 1864
1864 685
685 1930
1930 685
686 691
691 686
686 859
859 686
686 898
898 686
686 940
940 686
686 1052
1052 686
686 1099
1099 686
686 1453
1453 686
686 1710
1710 686
687 771
771 687
687 785
785 687
687 1460
1460 687
687 1513
1513 687
687 1762
1762 687
687 1864
1864 687
687 1900
1900 687
688 697
697 688
688 722
722 688
688 746
746 688
688 826
826 688
688 959
959 688
688 1328
1328 688
688 1490
1490 688
688 1671
1671 688
689 985
985 689
689 1051
1051 689
690 725
725 690
690 864
864 690
690 1122
1122 690
690 1341
1341 690
690 1514
1514 690
690 1701
1701 690
690 1864
1864 690
690 1904
1904 690
691 764
764 691
691 1315
1315 691
691 1319
1319 691
691 1388
1388 691
692 1224
1224 692
692 1648
1648 692
692 1940
1940 692
692 1941
1941 692
693 968
968 693
693 1275
1275 693
693 1410
1410 693
693 1472
1472 693
694 895
895 694
694 1392
1392 694
694 1676
1676 694
694 1726
1726 694
694 1794
1794 694
694 1946
1946 694
694 1992
1992 694
695 874
874 695
695 969
969 695
695 1749
1749 695
695 1817
1817 695
696 846
846 696
697 905
905 697
697 1049
1049 697
697 1133
1133 697
697 1190
1190 697
697 1218
1218 697
697 1242
1242 697
697 1595
1595 697
697 1967
1967 697
698 802
802 698
698 936
936 698
698 1123
1123 698
698 1702
1702 698
699 867
867 699
699 1086
1086 699
699 1543
1543 699
699 1846
1846 699
699 1853
1853 699
700 750
750 700
700 1043
1043 700
700 1528
1528 700
701 763
763 701
701 791
791 701
701 1054
1054 701
701 1109
1109 701
701 1413
1413 701
702 814
814 702
702 855
855 702
702 1132
1132 702
702 1485
1485 702
703 1679
1679 703
703 1755
1755 703
703 1858
1858 703
704 899
899 704
704 1083
1083 704
704 1254
1254 704
704 1288
1288 704
704 1534
1534 704
705 785
785 705
705 806
806 705
705 846
846 705
705 877
877 705
705 1315
1315 705
705 1457
1457 705
705 1525
1525 705
705 1642
1642 705
706 927
927 706
706 945
945 706
706 1058
1058 706
707 727
727 707
707 1128
1128 707
707 1287
1287 707
707 1527
1527 707
707 1701
1701 707
707 1771
1771 707
707 1994
1994 707
708 1116
1116 708
709 1185
1185 709
709 1233
1233 709
709 1731
1731 709
709 1762
1762 709
710 1013
1013 710
710 1205
1205 710
710 1247
1247 710
710 1402
1402 710
710 1906
1906 710
711 850
850 711
711 980
980 711
711 983
983 711
711 1014
1014 711
711 1307
1307 711
711 1955
1955 711
712 1277
1277 712
713 1050
1050 713
713 1088
1088 713
714 748
748 714
714 1222
1222 714
714 1313
1313 714
714 1314
1314 714
714 1435
1435 714
715 985
985 715
715 1051
1051 715
715 1366
1366 715
715 1638
1638 715
716 810
810 716
716 867
867 716
716 952
952 716
716 1308
1308 716
716 1362
1362 716
716 1503
1503 716
717 718
718 717
717 1041
1041 717
717 1430
1430 717
717 1674
1674 717
717 1889
1889 717
718 922
922 718
718 1155
1155 718
719 1183
1183 719
719 1689
1689 719
719 1804
1804 719
720 753
753 720
720 859
859 720
720 952
952 720
720 1265
1265 720
720 1313
1313 720
720 1500
1500 720
720 1544
1544 720
720 1647
1647 720
720 1750
1750 720
720 1767
1767 720
720 1924
1924 720
720 1998
1998 720
721 820
820 721
722 899
899 722
722 1053
1053 722
722 1561
1561 722
722 1722
1722 722
723 865
865 723
723 1307
1307 723
723 1318
1318 723
723 1896
1896 723
724 1215
1215 724
724 1370
1370 724
724 1598
1598 724
724 1783
1783 724
724 1887
1887 724
725 1361
1361 725
725 1929
1929 725
726 789
789 726
726 820
820 726
726 888
888 726
726 1060
1060 726
726 1426
1426 726
726 1448
1448 726
726 1458
1458 726
726 1822
1822 726
727 1778
1778 727
727 1989
1989 727
728 934
934 728
728 1015
1015 728
728 1304
1304 728
728 1562
1562 728
728 1653
1653 728
729 902
902 729
729 1001
1001 729
729 1408
1408 729
729 1522
1522 729
729 1591
1591 729
729 1764
1764 729
729 1825
1825 729
729 1826
1826 729
730 996
996 730
730 1017
1017 730
730 1477
1477 730
730 1910
1910 730
730 1946
1946 730
731 950
950 731
731 1318
1318 731
731 1400
1400 731
731 1730
1730 731
732 882
882 732
733 890
890 733
733 908
908 733
733 1003
1003 733
733 1011
1011 733
733 1358
1358 733
733 1430
1430 733
733 1539
1539 733
733 1817
1817 733
733 1818
1818 733
733 1868
1868 733
734 888
888 734
734 902
902 734
734 1222
1222 734
734 1450
1450 734
734 1634
1634 734
734 1876
1876 734
734 1936
1936 734
735 1199
1199 735
735 1304
1304 735
735 1464
1464 735
735 1792
1792 735
736 943
943 736
736 1090
1090 736
736 1317
1317 736
736 1408
1408 736
736 1754
1754 736
737 1063
1063 737
737 1617
1617 737
737 1670
1670 737
737 1878
1878 737
738 739
739 738
738 813
813 738
738 846
846 738
738 913
913 738
738 938
938 738
738 1345
1345 738
739 960
960 739
739 1012
1012 739
739 1066
1066 739
739 1073
1073 739
739 1721
1721 739
739 1988
1988 739
740 1010
1010 740
740 1040
1040 740
740 1665
1665 740
740 1677
1677 740
740 1870
1870 740
741 770
770 741
741 814
814 741
741 1091
1091 741
741 1323
1323 741
741 1463
1463 741
741 1513
1513 741
741 1653
1653 741
741 1812
1812 741
741 1905
1905 741
741 1923
1923 741
742 938
938 742
742 1001
1001 742
742 1094
1094 742
742 1176
1176 742
742 1410
1410 742
742 1559
1559 742
742 1669
1669 742
743 985
985 743
743 1117
1117 743
743 1422
1422 743
743 1696
1696 743
744 1046
1046 744
744 1266
1266 744
744 1488
1488 744
744 1751
1751 744
744 1782
1782 744
744 1945
1945 744
745 831
831 745
745 883
883 745
745 973
973 745
745 1680
1680 745
746 975
975 746
746 1109
1109 746
747 1048
1048 747
747 1149
1149 747
747 1498
1498 747
747 1672
1672 747
747 1977
1977 747
748 821
821 748
748 1254
1254 748
748 1292
1292 748
748 1376
1376 748
748 1758
1758 748
749 1006
1006 749
749 1160
1160 749
749 1328
1328 749
749 1465
1465 749
750 1169
1169 750
750 1452
1452 750
750 1693
1693 750
751 1106
1106 751
751 1633
1633 751
751 1775
1775 751
752 951
951 752
752 1400
1400 752
752 1409
1409 752
752 1423
1423 752
753 1438
1438 753
753 1505
1505 753
753 1722
1722 753
753 1961
1961 753
754 767
767 754
754 775
775 754
754 1624
1624 754
754 1837
1837 754
755 1203
1203 755
755 1681
1681 755
755 1712
1712 755
755 1928
1928 755
755 1977
1977 755
756 1282
1282 756
757 808
808 757
757 1135
1135 757
757 1158
1158 757
757 1314
1314 757
757 1676
1676 757
757 1699
1699 757
758 1066
1066 758
758 1233
1233 758
758 1238
1238 758
758 1825
1825 758
759 868
868 759
759 965
965 759
759 1058
1058 759
759 1292
1292 759
759 1609
1609 759
759 1736
1736 759
759 1854
1854 759
760 851
851 760
760 1187
1187 760
760 1566
1566 760
760 1691
1691 760
760 1796
1796 760
760 1940
1940 760
761 1246
1246 761
761 1492
1492 761
761 1996
1996 761
762 866
866 762
762 1192
1192 762
762 1677
1677 762
762 1913
1913 762
763 778
778 763
763 1369
1369 763
763 1461
1461 763
764 824
824 764
764 1011
1011 764
764 1018
1018 764
765 831
831 765
765 1516
1516 765
765 1994
1994 765
766 1033
1033 766
766 1173
1173 766
766 1202
1202 766
766 1338
1338 766
766 1432
1432 766
766 1922
1922 766
766 1992
1992 766
767 1443
1443 767
767 1475
1475 767
767 1679
1679 767
767 1711
1711 767
767 1819
1819 767
768 924
924 768
768 989
989 768
768 1032
1032 768
768 1107
1107 768
768 1301
1301 768
768 1658
1658 768
769 974
974 769
769 1250
1250 769
769 1783
1783 769
770 785
785 770
770 819
819 770
770 858
858 770
770 1089
1089 770
770 1104
1104 770
770 1272
1272 770
770 1274
1274 770
770 1513
1513 770
770 1966
1966 770
771 810
810 771
771 837
837 771
771 908
908 771
771 1057
1057 771
771 1380
1380 771
771 1569
1569 771
772 1330
1330 772
773 951
951 773
773 1726
1726 773
774 946
946 774
774 1521
1521 774
775 960
960 775
775 1197
1197 775
775 1321
1321 775
775 1533
1533 775
775 1684
1684 775
776 792
792 776
776 876
876 776
776 1507
1507 776
776 1623
1623 776
776 1882
1882 776
777 933
933 777
777 1087
1087 777
777 1520
1520 777
777 1761
1761 777
778 1288
1288 778
778 1569
1569 778
779 935
935 779
779 1127
1127 779
779 1500
1500 779
779 1592
1592 779
779 1937
1937 779
780 911
911 780
780 1022
1022 780
780 1514
1514 780
780 1612
1612 780
780 1622
1622 780
780 1726
1726 780
780 1908
1908 780
780 1980
1980 780
781 1270
1270 781
781 1342
1342 781
781 1930
1930 781
781 1985
1985 781
782 1111
1111 782
782 1540
1540 782
782 1693
1693 782
782 1750
1750 782
782 1791
1791 782
782 1995
1995 782
783 1055
1055 783
783 1108
1108 783
783 1462
1462 783
784 807
807 784
784 837
837 784
784 889
889 784
784 1750
1750 784
784 1950
1950 784
785 867
867 785
785 1125
1125 785
785 1326
1326 785
785 1459
1459 785
785 1695
1695 785
786 969
969 786
786 994
994 786
786 1539
1539 786
786 1655
1655 786
786 1686
1686 786
786 1835
1835 786
786 1836
1836 786
786 1943
1943 786
787 797
797 787
787 1074
1074 787
787 1136
1136 787
787 1490
1490 787
787 1590
1590 787
787 1602
1602 787
787 1888
1888 787
787 1902
1902 787
788 1136
1136 788
788 1337
1337 788
788 1607
1607 788
788 1681
1681 788
788 1686
1686 788
789 807
807 789
789 847
847 789
789 982
982 789
789 1350
1350 789
789 1455
1455 789
789 1817
1817 789
789 1825
1825 789
790 924
924 790
790 1258
1258 790
790 1661
1661 790
791 850
850 791
791 1284
1284 791
791 1315
1315 791
791 1518
1518 791
791 1716
1716 791
791 1738
1738 791
792 874
874 792
792 1104
1104 792
792 1437
1437 792
793 1051
1051 793
793 1143
1143 793
793 1683
1683 793
794 898
898 794
794 1062
1062 794
794 1380
1380 794
794 1511
1511 794
794 1547
1547 794
794 1549
1549 794
795 918
918 795
795 1398
1398 795
795 1416
1416 795
795 1546
1546 795
795 1973
1973 795
796 917
917 796
796 964
964 796
796 1112
1112 796
796 1611
1611 796
796 1934
1934 796
797 976
976 797
797 1060
1060 797
797 1127
1127 797
797 1372
1372 797
798 1073
1073 798
798 1185
1185 798
798 1717
1717 798
798 1729
1729 798
798 1831
1831 798
799 1130
1130 799
799 1265
1265 799
799 1287
1287 799
799 1528
1528 799
799 1946
1946 799
800 860
860 800
800 1039
1039 800
800 1487
1487 800
800 1875
1875 800
801 840
840 801
801 954
954 801
801 1079
1079 801
801 1640
1640 801
801 1942
1942 801
802 1270
1270 802
802 1362
1362 802
803 1240
1240 803
803 1520
1520 803
803 1849
1849 803
804 1218
1218 804
804 1253
1253 804
804 1254
1254 804
804 1599
1599 804
804 1866
1866 804
805 1027
1027 805
805 1646
1646 805
805 1753
1753 805
805 1996
1996 805
806 822
822 806
806 912
912 806
806 1085
1085 806
806 1200
1200 806
806 1337
1337 806
806 1532
1532 806
806 1609
1609 806
806 1628
1628 806
806 1694
1694 806
806 1826
1826 806
806 1833
1833 806
807 1295
1295 807
807 1306
1306 807
807 1760
1760 807
807 1768
1768 807
808 907
907 808
808 928
928 808
809 965
965 809
809 996
996 809
809 1029
1029 809
809 1038
1038 809
809 1382
1382 809
809 1681
1681 809
809 1850
1850 809
809 1954
1954 809
809 1979
1979 809
810 1017
1017 810
810 1671
1671 810
811 890
890 811
812 1159
1159 812
812 1279
1279 812
812 1596
1596 812
812 1682
1682 812
813 819
819 813
813 1025
1025 813
814 1188
1188 814
814 1341
1341 814
814 1629
1629 814
814 1864
1864 814
815 870
870 815
815 876
876 815
815 975
975 815
815 984
984 815
815 1013
1013 815
815 1765
1765 815
816 857
857 816
816 910
910 816
816 930
930 816
816 1551
1551 816
816 1711
1711 816
816 1846
1846 816
817 826
826 817
817 1021
1021 817
817 1394
1394 817
818 1334
1334 818
819 1131
1131 819
819 1765
1765 819
820 937
937 820
820 1032
1032 820
820 1109
1109 820
820 1559
1559 820
820 1828
1828 820
821 824
824 821
821 863
863 821
821 1129
1129 821
821 1336
1336 821
821 1549
1549 821
821 1604
1604 821
821 1686
1686 821
821 1938
1938 821
822 1393
1393 822
822 1467
1467 822
822 1816
1816 822
823 854
854 823
823 873
873 823
823 1854
1854 823
823 1962
1962 823
824 1091
1091 824
824 1117
1117 824
824 1177
1177 824
824 1235
1235 824
824 1387
1387 824
824 1448
1448 824
824 1589
1589 824
824 1943
1943 824
825 1032
1032 825
825 1195
1195 825
825 1253
1253 825
825 1284
1284 825
825 1607
1607 825
825 1635
1635 825
826 875
875 826
826 1813
1813 826
827 1035
1035 827
827 1103
1103 827
827 1369
1369 827
827 1566
1566 827
828 1087
1087 828
828 1302
1302 828
828 1453
1453 828
828 1569
1569 828
828 1680
1680 828
828 1711
1711 828
828 1782
1782 828
828 1948
1948 828
828 1980
1980 828
829 937
937 829
829 1031
1031 829
829 1163
1163 829
829 1381
1381 829
829 1447
1447 829
829 1801
1801 829
829 1938
1938 829
829 1958
1958 829
829 1960
1960 829
830 895
895 830
830 1308
1308 830
830 1507
1507 830
830 1726
1726 830
830 1949
1949 830
831 949
949 831
831 951
951 831
831 1073
1073 831
831 1290
1290 831
831 1706
1706 831
831 1736
1736 831
832 1428
1428 832
832 1515
1515 832
832 1548
1548 832
832 1807
1807 832
833 1010
1010 833
833 1067
1067 833
833 1475
1475 833
833 1709
1709 833
833 1891
1891 833
833 1898
1898 833
833 1974
1974 833
834 869
869 834
834 999
999 834
834 1021
1021 834
834 1327
1327 834
834 1697
1697 834
834 1873
1873 834
834 1940
1940 834
835 963
963 835
835 1256
1256 835
835 1778
1778 835
835 1974
1974 835
836 1099
1099 836
836 1148
1148 836
836 1629
1629 836
836 1673
1673 836
837 894
894 837
837 965
965 837
837 1157
1157 837
837 1489
1489 837
838 1338
1338 838
838 1458
1458 838
838 1484
1484 838
838 1633
1633 838
838 1655
1655 838
838 1732
1732 838
839 1001
1001 839
839 1498
1498 839
840 1205
1205 840
840 1366
1366 840
840 1455
1455 840
841 900
900 841
841 977
977 841
841 1126
1126 841
841 1174
1174 841
842 996
996 842
842 1057
1057 842
842 1245
1245 842
842 1461
1461 842
842 1594
1594 842
842 1709
1709 842
842 1886
1886 842
842 1947
1947 842
843 1181
1181 843
843 1480
1480 843
843 1709
1709 843
843 1714
1714 843
844 961
961 844
844 1149
1149 844
844 1337
1337 844
844 1787
1787 844
844 1844
1844 844
845 997
997 845
845 1205
1205 845
845 1266
1266 845
845 1833
1833 845
845 1969
1969 845
845 1994
1994 845
846 963
963 846
846 1113
1113 846
846 1225
1225 846
846 1557
1557 846
846 1688
1688 846
847 996
996 847
847 1086
1086 847
847 1242
1242 847
848 1096
1096 848
848 1941
1941 848
848 1982
1982 848
849 1019
1019 849
849 1058
1058 849
849 1362
1362 849
849 1452
1452 849
849 1601
1601 849
849 1805
1805 849
849 1845
1845 849
849 1985
1985 849
850 878
878 850
850 1131
1131 850
850 1455
1455 850
850 1615
1615 850
850 1821
1821 850
851 1199
1199 851
851 1581
1581 851
851 1701
1701 851
851 1826
1826 851
852 854
854 852
852 869
869 852
852 1448
1448 852
852 1457
1457 852
852 1568
1568 852
852 1597
1597 852
852 1648
1648 852
852 1774
1774 852
852 1834
1834 852
852 1853
1853 852
852 1982
1982 852
853 1270
1270 853
853 1536
1536 853
854 1651
1651 854
855 1306
1306 855
855 1537
1537 855
855 1904
1904 855
856 1002
1002 856
856 1230
1230 856
856 1644
1644 856
856 1748
1748 856
856 1759
1759 856
856 1983
1983 856
856 1995
1995 856
857 1029
1029 857
857 1320
1320 857
857 1434
1434 857
857 1473
1473 857
857 1570
1570 857
857 1807
1807 857
858 962
962 858
859 928
928 859
859 1102
1102 859
859 1183
1183 859
859 1382
1382 859
859 1422
1422 859
859 1620
1620 859
859 1819
1819 859
859 1975
1975 859
860 1114
1114 860
860 1447
1447 860
861 1056
1056 861
861 1719
1719 861
862 978
978 862
862 1440
1440 862
862 1547
1547 862
862 1820
1820 862
862 1987
1987 862
863 1121
1121 863
863 1293
1293 863
863 1488
1488 863
864 880
880 864
864 1293
1293 864
864 1332
1332 864
864 1432
1432 864
864 1433
1433 864
864 1915
1915 864
865 935
935 865
865 1327
1327 865
865 1378
1378 865
865 1507
1507 865
865 1718
1718 865
865 1983
1983 865
866 1251
1251 866
866 1747
1747 866
866 1870
1870 866
866 1973
1973 866
867 1566
1566 867
867 1718
1718 867
868 939
939 868
868 956
956 868
868 1381
1381 868
868 1795
1795 868
869 1054
1054 869
869 1064
1064 869
869 1324
1324 869
869 1946
1946 869
870 1200
1200 870
870 1326
1326 870
870 1550
1550 870
870 1578
1578 870
870 1651
1651 870
870 1739
1739 870
870 1931
1931 870
870 1982
1982 870
871 959
959 871
871 962
962 871
871 1005
1005 871
871 1148
1148 871
871 1241
1241 871
871 1572
1572 871
871 1610
1610 871
872 1304
1304 872
872 1803
1803 872
873 916
916 873
873 1080
1080 873
873 1495
1495 873
873 1681
1681 873
873 1745
1745 873
874 901
901 874
874 1134
1134 874
874 1306
1306 874
874 1655
1655 874
874 1709
1709 874
874 1874
1874 874
875 1103
1103 875
875 1299
1299 875
875 1698
1698 875
875 1863
1863 875
875 1881
1881 875
875 1918
1918 875
876 915
915 876
876 1063
1063 876
876 1111
1111 876
876 1159
1159 876
876 1255
1255 876
876 1409
1409 876
876 1410
1410 876
876 1540
1540 876
877 961
961 877
877 1088
1088 877
877 1196
1196 877
877 1270
1270 877
877 1706
1706 877
878 1310
1310 878
878 1700
1700 878
879 1046
1046 879
879 1095
1095 879
879 1120
1120 879
879 1290
1290 879
879 1631
1631 879
879 1632
1632 879
879 1642
1642 879
879 1828
1828 879
880 1045
1045 880
880 1134
1134 880
880 1308
1308 880
880 1337
1337 880
880 1878
1878 880
881 929
929 881
881 1047
1047 881
881 1257
1257 881
881 1371
1371 881
881 1448
1448 881
881 1619
1619 881
881 1872
1872 881
882 1900
1900 882
883 1192
1192 883
883 1589
1589 883
883 1780
1780 883
883 1876
1876 883
883 1951
1951 883
884 1185
1185 884
884 1314
1314 884
884 1514
1514 884
884 1605
1605 884
885 946
946 885
885 1599
1599 885
885 1791
1791 885
886 982
982 886
886 1265
1265 886
886 1266
1266 886
886 1350
1350 886
886 1381
1381 886
886 1421
1421 886
886 1882
1882 886
887 1052
1052 887
887 1091
1091 887
887 1344
1344 887
888 1125
1125 888
888 1208
1208 888
888 1267
1267 888
888 1665
1665 888
888 1870
1870 888
889 1240
1240 889
889 1646
1646 889
889 1961
1961 889
890 895
895 890
890 1504
1504 890
890 1714
1714 890
891 1012
1012 891
891 1204
1204 891
891 1221
1221 891
891 1541
1541 891
891 1566
1566 891
891 1586
1586 891
891 1608
1608 891
891 1647
1647 891
892 1316
1316 892
892 1328
1328 892
892 1779
1779 892
892 1787
1787 892
892 1838
1838 892
892 2000
2000 892
893 992
992 893
893 1109
1109 893
893 1449
1449 893
893 1455
1455 893
893 1510
1510 893
893 1971
1971 893
894 959
959 894
894 1043
1043 894
894 1114
1114 894
894 1503
1503 894
894 1679
1679 894
895 1007
1007 895
895 1134
1134 895
895 1190
1190 895
895 1372
1372 895
895 1698
1698 895
895 1806
1806 895
896 1059
1059 896
896 1809
1809 896
897 919
919 897
897 1006
1006 897
897 1148
1148 897
897 1268
1268 897
897 1319
1319 897
897 1382
1382 897
897 1902
1902 897
898 982
982 898
898 1003
1003 898
898 1076
1076 898
898 1155
1155 898
898 1397
1397 898
898 1909
1909 898
898 1971
1971 898
899 1173
1173 899
899 1227
1227 899
899 1579
1579 899
900 1436
1436 900
900 1545
1545 900
900 1976
1976 900
901 1129
1129 901
901 1409
1409 901
901 1680
1680 901
902 1027
1027 902
902 1212
1212 902
902 1359
1359 902
902 1457
1457 902
902 1515
1515 902
902 1865
1865 902
902 1950
1950 902
902 1998
1998 902
903 1097
1097 903
903 1137
1137 903
903 1178
1178 903
903 1192
1192 903
903 1344
1344 903
903 1348
1348 903
903 1721
1721 903
903 1790
1790 903
903 1800
1800 903
904 1060
1060 904
904 1127
1127 904
904 1388
1388 904
904 1606
1606 904
904 1821
1821 904
905 1366
1366 905
905 1378
1378 905
905 1422
1422 905
905 1603
1603 905
905 1987
1987 905
906 1063
1063 906
906 1333
1333 906
906 1625
1625 906
906 1854
1854 906
907 1441
1441 907
907 1694
1694 907
908 930
930 908
908 1922
1922 908
909 983
983 909
909 1114
1114 909
909 1131
1131 909
909 1247
1247 909
909 1387
1387 909
909 1498
1498 909
909 1582
1582 909
909 1596
1596 909
909 1755
1755 909
910 1053
1053 910
910 1151
1151 910
910 1559
1559 910
910 1639
1639 910
911 1016
1016 911
911 1347
1347 911
911 1528
1528 911
911 1544
1544 911
911 1970
1970 911
912 1299
1299 912
912 1362
1362 912
913 914
914 913
913 1200
1200 913
913 1253
1253 913
913 1276
1276 913
914 1045
1045 914
916 1014
1014 916
916 1566
1566 916
916 1709
1709 916
916 1763
1763 916
916 1782
1782 916
917 951
951 917
917 1062
1062 917
917 1601
1601 917
917 1810
1810 917
918 1112
1112 918
918 1184
1184 918
918 1310
1310 918
918 1420
1420 918
918 1603
1603 918
918 1763
1763 918
918 1822
1822 918
918 1937
1937 918
919 1480
1480 919
920 980
980 920
920 1240
1240 920
920 1279
1279 920
920 1728
1728 920
920 1958
1958 920
921 934
934 921
921 1071
1071 921
921 1187
1187 921
921 1471
1471 921
921 1575
1575 921
921 1587
1587 921
921 1617
1617 921
921 1721
1721 921
922 990
990 922
922 1084
1084 922
922 1632
1632 922
922 1734
1734 922
922 1974
1974 922
923 1018
1018 923
923 1074
1074 923
923 1235
1235 923
923 1415
1415 923
923 1440
1440 923
923 1629
1629 923
923 1816
1816 923
923 1825
1825 923
924 1017
1017 924
924 1163
1163 924
924 1172
1172 924
924 1394
1394 924
924 1894
1894 924
925 1229
1229 925
925 1354
1354 925
926 1094
1094 926
926 1408
1408 926
926 1642
1642 926
926 1668
1668 926
926 1762
1762 926
927 1040
1040 927
927 1057
1057 927
927 1328
1328 927
927 1714
1714 927
927 1998
1998 927
928 1013
1013 928
928 1018
1018 928
928 1092
1092 928
928 1322
1322 928
928 1457
1457 928
928 1698
1698 928
928 1758
1758 928
928 1958
1958 928
929 1281
1281 929
929 1499
1499 929
930 1169
1169 930
930 1263
1263 930
930 1429
1429 930
930 1649
1649 930
930 1720
1720 930
930 1787
1787 930
931 939
939 931
931 1122
1122 931
932 952
952 932
932 1067
1067 932
933 1816
1816 933
933 1993
1993 933
934 1253
1253 934
934 1345
1345 934
935 1339
1339 935
935 1443
1443 935
935 1566
1566 935
935 1683
1683 935
936 1009
1009 936
936 1081
1081 936
936 1260
1260 936
936 1426
1426 936
936 1786
1786 936
937 1115
1115 937
937 1397
1397 937
937 1547
1547 937
937 1898
1898 937
938 989
989 938
938 1020
1020 938
938 1432
1432 938
938 1827
1827 938
939 960
960 939
939 1465
1465 939
939 1580
1580 939
939 1585
1585 939
940 1097
1097 940
940 1644
1644 940
941 1097
1097 941
941 1132
1132 941
941 1204
1204 941
941 1588
1588 941
942 1307
1307 942
942 1993
1993 942
943 1200
1200 943
943 1309
1309 943
943 1319
1319 943
943 1580
1580 943
943 1919
1919 943
944 948
948 944
944 958
958 944
944 996
996 944
944 1064
1064 944
944 1228
1228 944
944 1411
1411 944
944 1575
1575 944
944 1641
1641 944
945 1048
1048 945
945 1179
1179 945
945 1474
1474 945
945 1671
1671 945
946 1193
1193 946
946 1508
1508 946
946 1630
1630 946
946 1922
1922 946
947 1085
1085 947
947 1313
1313 947
947 1330
1330 947
947 1352
1352 947
947 1577
1577 947
947 1770
1770 947
948 1319
1319 948
948 1374
1374 948
948 1566
1566 948
948 1913
1913 948
948 1965
1965 948
949 955
955 949
949 1024
1024 949
949 1172
1172 949
949 1186
1186 949
949 1323
1323 949
949 1567
1567 949
949 1751
1751 949
949 1828
1828 949
950 1004
1004 950
951 1177
1177 951
951 1189
1189 951
951 1265
1265 951
951 1450
1450 951
951 1730
1730 951
952 1196
1196 952
952 1228
1228 952
952 1373
1373 952
952 1654
1654 952
952 1683
1683 952
952 1991
1991 952
952 1996
1996 952
953 1099
1099 953
953 1118
1118 953
953 1367
1367 953
953 1480
1480 953
953 1661
1661 953
953 1722
1722 953
953 1770
1770 953
953 1827
1827 953
954 1471
1471 954
954 1781
1781 954
954 1906
1906 954
955 1162
1162 955
955 1715
1715 955
955 1842
1842 955
955 1854
1854 955
955 1855
1855 955
956 1026
1026 956
956 1102
1102 956
956 1270
1270 956
956 1357
1357 956
956 1411
1411 956
956 1433
1433 956
956 1759
1759 956
957 1177
1177 957
957 1296
1296 957
957 1576
1576 957
957 1956
1956 957
958 1045
1045 958
958 1236
1236 958
958 1298
1298 958
958 1792
1792 958
958 1918
1918 958
958 1993
1993 958
959 989
989 959
959 1146
1146 959
959 1226
1226 959
959 1442
1442 959
959 1612
1612 959
959 1724
1724 959
960 1829
1829 960
961 1204
1204 961
961 1768
1768 961
961 1959
1959 961
962 1502
1502 962
962 1709
1709 962
962 1870
1870 962
963 1715
1715 963
963 1769
1769 963
963 1844
1844 963
964 1011
1011 964
964 1338
1338 964
965 1088
1088 965
965 1376
1376 965
965 1423
1423 965
965 1647
1647 965
965 1899
1899 965
966 1529
1529 966
966 1845
1845 966
966 1853
1853 966
967 1032
1032 967
967 1394
1394 967
967 1551
1551 967
967 1648
1648 967
967 1822
1822 967
967 1908
1908 967
968 1043
1043 968
968 1263
1263 968
969 1935
1935 969
970 1313
1313 970
972 1023
1023 972
972 1073
1073 972
972 1708
1708 972
972 1880
1880 972
972 1934
1934 972
973 1400
1400 973
973 1640
1640 973
974 1400
1400 974
974 1570
1570 974
975 1456
1456 975
975 1837
1837 975
976 1894
1894 976
977 1316
1316 977
977 1937
1937 977
978 1118
1118 978
978 1525
1525 978
978 1762
1762 978
978 1773
1773 978
978 1897
1897 978
978 1905
1905 978
979 989
989 979
979 1038
1038 979
979 1306
1306 979
979 1379
1379 979
979 1668
1668 979
979 1999
1999 979
980 1150
1150 980
980 1410
1410 980
980 1500
1500 980
980 1654
1654 980
980 1838
1838 980
980 1919
1919 980
980 1927
1927 980
981 1202
1202 981
981 1995
1995 981
982 1050
1050 982
982 1070
1070 982
982 1343
1343 982
982 1847
1847 982
983 1048
1048 983
983 1076
1076 983
983 1673
1673 983
984 1042
1042 984
984 1092
1092 984
984 1557
1557 984
984 1631
1631 984
984 1860
1860 984
985 1036
1036 985
985 1700
1700 985
986 1057
1057 986
986 1439
1439 986
986 1785
1785 986
986 1883
1883 986
987 1188
1188 987
987 1368
1368 987
987 1375
1375 987
987 1447
1447 987
987 1499
1499 987
987 1896
1896 987
988 1062
1062 988
988 1502
1502 988
989 1743
1743 989
989 1781
1781 989
989 1794
1794 989
989 1878
1878 989
990 1005
1005 990
990 1130
1130 990
990 1496
1496 990
990 1571
1571 990
990 1777
1777 990
991 1400
1400 991
992 1018
1018 992
992 1211
1211 992
992 1347
1347 992
992 1539
1539 992
992 1730
1730 992
992 1831
1831 992
992 1875
1875 992
993 1132
1132 993
993 1399
1399 993
993 1444
1444 993
993 1650
1650 993
993 1750
1750 993
994 1178
1178 994
994 1397
1397 994
994 1486
1486 994
994 1744
1744 994
994 1914
1914 994
994 1936
1936 994
995 1213
1213 995
995 1393
1393 995
995 1489
1489 995
995 1542
1542 995
995 1659
1659 995
996 1178
1178 996
996 1632
1632 996
996 1815
1815 996
996 1968
1968 996
997 1235
1235 997
997 1879
1879 997
998 1166
1166 998
998 1358
1358 998
998 1425
1425 998
999 1002
1002 999
999 1082
1082 999
999 1431
1431 999
1000 1409
1409 1000
1000 1768
1768 1000
1000 1795
1795 1000
1000 1873
1873 1000
1001 1220
1220 1001
1001 1252
1252 1001
1001 1440
1440 1001
1001 1639
1639 1001
1001 1889
1889 1001
1001 1910
1910 1001
1001 1946
1946 1001
1002 1443
1443 1002
1002 1447
1447 1002
1002 1814
1814 1002
1003 1371
1371 1003
1003 1802
1802 1003
1004 1007
1007 1004
1004 1265
1265 1004
1004 1446
1446 1004
1004 1455
1455 1004
1004 1526
1526 1004
1004 1917
1917 1004
1005 1051
1051 1005
1005 1446
1446 1005
1005 1461
1461 1005
1005 1637
1637 1005
1005 1913
1913 1005
1006 1058
1058 1006
1006 1398
1398 1006
1006 1481
1481 1006
1007 1082
1082 1007
1007 1217
1217 1007
1007 1722
1722 1007
1008 1209
1209 1008
1008 1463
1463 1008
1008 1701
1701 1008
1008 1726
1726 1008
1009 1578
1578 1009
1009 1583
1583 1009
1010 1069
1069 1010
1010 1392
1392 1010
1010 1395
1395 1010
1010 1561
1561 1010
1010 1762
1762 1010
1010 1969
1969 1010
1011 1166
1166 1011
1011 1345
1345 1011
1011 1568
1568 1011
1011 1616
1616 1011
1012 1138
1138 1012
1012 1337
1337 1012
1012 1599
1599 1012
1012 1751
1751 1012
1012 1870
1870 1012
1012 1885
1885 1012
1013 1105
1105 1013
1013 1523
1523 1013
1013 1775
1775 1013
1013 1975
1975 1013
1014 1244
1244 1014
1014 1271
1271 1014
1014 1350
1350 1014
1014 1660
1660 1014
1014 1714
1714 1014
1015 1195
1195 1015
1015 1465
1465 1015
1015 1589
1589 1015
1015 1602
1602 1015
1015 1658
1658 1015
1015 1997
1997 1015
1016 1088
1088 1016
1016 1098
1098 1016
1016 1229
1229 1016
1016 1434
1434 1016
1016 1546
1546 1016
1016 1730
1730 1016
1016 1785
1785 1016
1016 1954
1954 1016
1016 1960
1960 1016
1017 1326
1326 1017
1017 1555
1555 1017
1017 1779
1779 1017
1018 1025
1025 1018
1018 1180
1180 1018
1018 1231
1231 1018
1018 1397
1397 1018
1019 1370
1370 1019
1019 1541
1541 1019
1020 1133
1133 1020
1020 1152
1152 1020
1020 1446
1446 1020
1020 1615
1615 1020
1020 1982
1982 1020
1021 1278
1278 1021
1021 1356
1356 1021
1021 1618
1618 1021
1022 1356
1356 1022
1022 1610
1610 1022
1022 1634
1634 1022
1022 1917
1917 1022
1022 1974
1974 1022
1023 1081
1081 1023
1023 1246
1246 1023
1023 1319
1319 1023
1023 1592
1592 1023
1023 1831
1831 1023
1024 1028
1028 1024
1024 1107
1107 1024
1024 1275
1275 1024
1024 1414
1414 1024
1024 1489
1489 1024
1025 1034
1034 1025
1025 1288
1288 1025
1025 1559
1559 1025
1025 1895
1895 1025
1026 1560
1560 1026
1026 1668
1668 1026
1026 1774
1774 1026
1026 1811
1811 1026
1026 1924
1924 1026
1027 1412
1412 1027
1028 1323
1323 1028
1028 1496
1496 1028
1028 1632
1632 1028
1029 1110
1110 1029
1029 1152
1152 1029
1029 1189
1189 1029
1029 1306
1306 1029
1029 1381
1381 1029
1029 1488
1488 1029
1030 1133
1133 1030
1030 1228
1228 1030
1030 1653
1653 1030
1030 1844
1844 1030
1030 1849
1849 1030
1030 1904
1904 1030
1031 1244
1244 1031
1031 1265
1265 1031
1031 1442
1442 1031
1031 1494
1494 1031
1032 1198
1198 1032
1032 1362
1362 1032
1032 1557
1557 1032
1032 1837
1837 1032
1033 1508
1508 1033
1033 1818
1818 1033
1033 1825
1825 1033
1034 1067
1067 1034
1034 1198
1198 1034
1034 1364
1364 1034
1034 1456
1456 1034
1034 1576
1576 1034
1034 1787
1787 1034
1036 1231
1231 1036
1036 1434
1434 1036
1036 1568
1568 1036
1036 1584
1584 1036
1036 1592
1592 1036
1036 1620
1620 1036
1036 1786
1786 1036
1037 1449
1449 1037
1037 1485
1485 1037
1037 1868
1868 1037
1037 1904
1904 1037
1038 1214
1214 1038
1038 1320
1320 1038
1038 1629
1629 1038
1038 1796
1796 1038
1039 1321
1321 1039
1039 1417
1417 1039
1039 1675
1675 1039
1039 1714
1714 1039
1039 1919
1919 1039
1039 1946
1946 1039
1039 1984
1984 1039
1040 1063
1063 1040
1040 1456
1456 1040
1041 1069
1069 1041
1041 1326
1326 1041
1041 1463
1463 1041
1041 1467
1467 1041
1041 1840
1840 1041
1041 1881
1881 1041
1042 1056
1056 1042
1042 1091
1091 1042
1042 1199
1199 1042
1042 1233
1233 1042
1042 1398
1398 1042
1042 1408
1408 1042
1042 1806
1806 1042
1042 1895
1895 1042
1043 1364
1364 1043
1043 1392
1392 1043
1043 1469
1469 1043
1043 1563
1563 1043
1043 1688
1688 1043
1044 1084
1084 1044
1044 1167
1167 1044
1044 1423
1423 1044
1044 1574
1574 1044
1044 1918
1918 1044
1044 1982
1982 1044
1045 1298
1298 1045
1045 1473
1473 1045
1045 1622
1622 1045
1045 1806
1806 1045
1045 1895
1895 1045
1045 1923
1923 1045
1046 1359
1359 1046
1046 1961
1961 1046
1047 1425
1425 1047
1047 1830
1830 1047
1047 1872
1872 1047
1048 1196
1196 1048
1048 1331
1331 1048
1048 1852
1852 1048
1049 1471
1471 1049
1050 1563
1563 1050
1050 1734
1734 1050
1050 1739
1739 1050
1050 1996
1996 1050
1051 1135
1135 1051
1051 1251
1251 1051
1051 1362
1362 1051
1051 1369
1369 1051
1051 1514
1514 1051
1051 1702
1702 1051
1051 1857
1857 1051
1052 1147
1147 1052
1052 1268
1268 1052
1052 1349
1349 1052
1052 1982
1982 1052
1053 1285
1285 1053
1053 1384
1384 1053
1053 1414
1414 1053
1053 1526
1526 1053
1053 1654
1654 1053
1053 1721
1721 1053
1053 1854
1854 1053
1053 1952
1952 1053
1054 1112
1112 1054
1054 1180
1180 1054
1054 1414
1414 1054
1055 1095
1095 1055
1055 1560
1560 1055
1055 1689
1689 1055
1055 1747
1747 1055
1055 1964
1964 1055
1056 1242
1242 1056
1056 1254
1254 1056
1056 1655
1655 1056
1056 1669
1669 1056
1056 1948
1948 1056
1056 1954
1954 1056
1057 1147
1147 1057
1057 1437
1437 1057
1057 1944
1944 1057
1058 1064
1064 1058
1058 1252
1252 1058
1058 1565
1565 1058
1058 1889
1889 1058
1058 1918
1918 1058
1059 1107
1107 1059
1059 1221
1221 1059
1059 1516
1516 1059
1060 1253
1253 1060
1061 1232
1232 1061
1061 1316
1316 1061
1061 1458
1458 1061
1061 1694
1694 1061
1062 1070
1070 1062
1062 1093
1093 1062
1063 1096
1096 1063
1063 1305
1305 1063
1063 1538
1538 1063
1063 1696
1696 1063
1063 1929
1929 1063
1064 1225
1225 1064
1064 1598
1598 1064
1064 1857
1857 1064
1064 1868
1868 1064
1064 1965
1965 1064
1064 1984
1984 1064
1065 1702
1702 1065
1066 1097
1097 1066
1066 1107
1107 1066
1066 1347
1347 1066
1066 1452
1452 1066
1066 1675
1675 1066
1066 1897
1897 1066
1066 1968
1968 1066
1067 1239
1239 1067
1067 1330
1330 1067
1067 1651
1651 1067
1067 1727
1727 1067
1067 1755
1755 1067
1067 1995
1995 1067
1068 1359
1359 1068
1068 1386
1386 1068
1068 1531
1531 1068
1068 1566
1566 1068
1068 1998
1998 1068
1069 1864
1864 1069
1070 1225
1225 1070
1070 1232
1232 1070
1070 1445
1445 1070
1070 1897
1897 1070
1070 1901
1901 1070
1070 1911
1911 1070
1071 1476
1476 1071
1071 1759
1759 1071
1072 1106
1106 1072
1072 1695
1695 1072
1073 1331
1331 1073
1073 1517
1517 1073
1073 1653
1653 1073
1073 1674
1674 1073
1073 1746
1746 1073
1073 1806
1806 1073
1073 1852
1852 1073
1074 1293
1293 1074
1074 1455
1455 1074
1075 1318
1318 1075
1075 1332
1332 1075
1075 1461
1461 1075
1075 1472
1472 1075
1075 1524
1524 1075
1075 1739
1739 1075
1075 1804
1804 1075
1075 1871
1871 1075
1076 1339
1339 1076
1076 1400
1400 1076
1076 1520
1520 1076
1076 1894
1894 1076
1077 1241
1241 1077
1077 1335
1335 1077
1078 1107
1107 1078
1078 1467
1467 1078
1078 1501
1501 1078
1078 1597
1597 1078
1078 1606
1606 1078
1078 1974
1974 1078
1079 1364
1364 1079
1079 1383
1383 1079
1079 1427
1427 1079
1079 1448
1448 1079
1079 1527
1527 1079
1079 1624
1624 1079
1079 1628
1628 1079
1079 1634
1634 1079
1079 1672
1672 1079
1079 1965
1965 1079
1080 1488
1488 1080
1080 1491
1491 1080
1081 1605
1605 1081
1081 1772
1772 1081
1082 1363
1363 1082
1082 1661
1661 1082
1082 2000
2000 1082
1084 1512
1512 1084
1084 1631
1631 1084
1084 1726
1726 1084
1085 1539
1539 1085
1085 1577
1577 1085
1085 1922
1922 1085
1086 1092
1092 1086
1086 1324
1324 1086
1086 1545
1545 1086
1086 1576
1576 1086
1086 1712
1712 1086
1086 1854
1854 1086
1087 1101
1101 1087
1087 1261
1261 1087
1087 1569
1569 1087
1088 1223
1223 1088
1088 1289
1289 1088
1089 1298
1298 1089
1089 1466
1466 1089
1089 1708
1708 1089
1089 1873
1873 1089
1089 1974
1974 1089
1090 1714
1714 1090
1090 1842
1842 1090
1091 1284
1284 1091
1091 1403
1403 1091
1092 1215
1215 1092
1092 1403
1403 1092
1092 1476
1476 1092
1093 1603
1603 1093
1094 1492
1492 1094
1094 1862
1862 1094
1094 1920
1920 1094
1095 1274
1274 1095
1095 1296
1296 1095
1095 1400
1400 1095
1095 1690
1690 1095
1097 1261
1261 1097
1097 1419
1419 1097
1097 1446
1446 1097
1097 1599
1599 1097
1098 1336
1336 1098
1098 1386
1386 1098
1098 1597
1597 1098
1098 1828
1828 1098
1098 1830
1830 1098
1098 1927
1927 1098
1098 1931
1931 1098
1099 1244
1244 1099
1099 1261
1261 1099
1100 1253
1253 1100
1100 1328
1328 1100
1100 1407
1407 1100
1100 1774
1774 1100
1101 1209
1209 1101
1101 1415
1415 1101
1101 1606
1606 1101
1101 1779
1779 1101
1101 1939
1939 1101
1102 1492
1492 1102
1102 1781
1781 1102
1102 1813
1813 1102
1102 1839
1839 1102
1102 1988
1988 1102
1103 1562
1562 1103
1103 1797
1797 1103
1105 1527
1527 1105
1105 1588
1588 1105
1105 1807
1807 1105
1105 1983
1983 1105
1105 1990
1990 1105
1106 1146
1146 1106
1106 1477
1477 1106
1106 1595
1595 1106
1106 1982
1982 1106
1106 1987
1987 1106
1107 1294
1294 1107
1107 1300
1300 1107
1107 1987
1987 1107
1108 1131
1131 1108
1108 1268
1268 1108
1108 1384
1384 1108
1108 1970
1970 1108
1109 1480
1480 1109
1109 1615
1615 1109
1110 1215
1215 1110
1110 1359
1359 1110
1110 1602
1602 1110
1111 1194
1194 1111
1111 1587
1587 1111
1111 1640
1640 1111
1112 1136
1136 1112
1112 1917
1917 1112
1113 1299
1299 1113
1113 1765
1765 1113
1114 1145
1145 1114
1114 1303
1303 1114
1114 1331
1331 1114
1114 1440
1440 1114
1114 1928
1928 1114
1114 1972
1972 1114
1115 1990
1990 1115
1116 1190
1190 1116
1116 1318
1318 1116
1116 1517
1517 1116
1117 1286
1286 1117
1117 1647
1647 1117
1117 1773
1773 1117
1118 1271
1271 1118
1119 1626
1626 1119
1119 1970
1970 1119
1119 1993
1993 1119
1120 1136
1136 1120
1120 1366
1366 1120
1120 1420
1420 1120
1121 1429
1429 1121
1121 1597
1597 1121
1121 1928
1928 1121
1122 1130
1130 1122
1124 1770
1770 1124
1124 1789
1789 1124
1125 1371
1371 1125
1125 1514
1514 1125
1126 1455
1455 1126
1126 1561
1561 1126
1126 1767
1767 1126
1126 1808
1808 1126
1126 1827
1827 1126
1126 1893
1893 1126
1127 1169
1169 1127
1127 1318
1318 1127
1127 1346
1346 1127
1127 1448
1448 1127
1127 1612
1612 1127
1127 1735
1735 1127
1127 1764
1764 1127
1127 1827
1827 1127
1128 1322
1322 1128
1128 1420
1420 1128
1129 1340
1340 1129
1129 1356
1356 1129
1129 1472
1472 1129
1129 1758
1758 1129
1130 1275
1275 1130
1130 1864
1864 1130
1131 1702
1702 1131
1131 1711
1711 1131
1132 1217
1217 1132
1132 1231
1231 1132
1132 1675
1675 1132
1133 1746
1746 1133
1134 1463
1463 1134
1134 1527
1527 1134
1135 1287
1287 1135
1135 1621
1621 1135
1135 1727
1727 1135
1135 1739
1739 1135
1135 1743
1743 1135
1135 1765
1765 1135
1135 1852
1852 1135
1135 1856
1856 1135
1136 1574
1574 1136
1136 1645
1645 1136
1136 1874
1874 1136
1136 1939
1939 1136
1137 1364
1364 1137
1137 1560
1560 1137
1137 1848
1848 1137
1137 1902
1902 1137
1137 1962
1962 1137
1138 1343
1343 1138
1138 1366
1366 1138
1138 1409
1409 1138
1138 1759
1759 1138
1138 1864
1864 1138
1138 1970
1970 1138
1139 1191
1191 1139
1139 1624
1624 1139
1139 1907
1907 1139
1140 1236
1236 1140
1140 1465
1465 1140
1140 1759
1759 1140
1140 1826
1826 1140
1140 1900
1900 1140
1140 1948
1948 1140
1140 1976
1976 1140
1141 1238
1238 1141
1141 1319
1319 1141
1141 1404
1404 1141
1142 1940
1940 1142
1143 1144
1144 1143
1143 1162
1162 1143
1143 1286
1286 1143
1143 1463
1463 1143
1143 1633
1633 1143
1143 1687
1687 1143
1143 1802
1802 1143
1143 1990
1990 1143
1144 1277
1277 1144
1144 1562
1562 1144
1144 1658
1658 1144
1144 1677
1677 1144
1144 1851
1851 1144
1144 1958
1958 1144
1145 1304
1304 1145
1145 1662
1662 1145
1145 1746
1746 1145
1145 1760
1760 1145
1145 1980
1980 1145
1146 1334
1334 1146
1146 1795
1795 1146
1147 1254
1254 1147
1148 1426
1426 1148
1148 1906
1906 1148
1148 1916
1916 1148
1149 1537
1537 1149
1149 1750
1750 1149
1149 1988
1988 1149
1150 1270
1270 1150
1150 1296
1296 1150
1150 1361
1361 1150
1150 1390
1390 1150
1150 1479
1479 1150
1150 1672
1672 1150
1150 1984
1984 1150
1151 1395
1395 1151
1151 1436
1436 1151
1151 1778
1778 1151
1152 1274
1274 1152
1152 1493
1493 1152
1152 1497
1497 1152
1152 1844
1844 1152
1152 1871
1871 1152
1152 1885
1885 1152
1153 1561
1561 1153
1153 1737
1737 1153
1154 1251
1251 1154
1154 1272
1272 1154
1154 1419
1419 1154
1155 1311
1311 1155
1155 1697
1697 1155
1155 1835
1835 1155
1156 1170
1170 1156
1157 1242
1242 1157
1157 1509
1509 1157
1157 1677
1677 1157
1157 1870
1870 1157
1157 1974
1974 1157
1157 1976
1976 1157
1158 1678
1678 1158
1158 1843
1843 1158
1158 1943
1943 1158
1158 1989
1989 1158
1159 1298
1298 1159
1159 1321
1321 1159
1159 1458
1458 1159
1159 1496
1496 1159
1159 1559
1559 1159
1159 1618
1618 1159
1160 1919
1919 1160
1161 1234
1234 1161
1161 1470
1470 1161
1161 1540
1540 1161
1161 1665
1665 1161
1161 1840
1840 1161
1162 1436
1436 1162
1162 1530
1530 1162
1163 1533
1533 1163
1163 1684
1684 1163
1163 1980
1980 1163
1164 1325
1325 1164
1164 1496
1496 1164
1164 1597
1597 1164
1164 1847
1847 1164
1164 1979
1979 1164
1164 1999
1999 1164
1165 1221
1221 1165
1165 1278
1278 1165
1165 1418
1418 1165
1165 1838
1838 1165
1166 1235
1235 1166
1166 1237
1237 1166
1166 1304
1304 1166
1166 1394
1394 1166
1166 1617
1617 1166
1166 1624
1624 1166
1166 1702
1702 1166
1166 1708
1708 1166
1166 1738
1738 1166
1167 1978
1978 1167
1168 1212
1212 1168
1168 1428
1428 1168
1168 1789
1789 1168
1169 1344
1344 1169
1169 1495
1495 1169
1169 1532
1532 1169
1169 1751
1751 1169
1169 1763
1763 1169
1169 1860
1860 1169
1169 1864
1864 1169
1169 1890
1890 1169
1170 1590
1590 1170
1170 1802
1802 1170
1171 1514
1514 1171
1171 1568
1568 1171
1172 1564
1564 1172
1172 1819
1819 1172
1173 1389
1389 1173
1173 1582
1582 1173
1173 1659
1659 1173
1173 1759
1759 1173
1173 1841
1841 1173
1173 1984
1984 1173
1173 1992
1992 1173
1174 1222
1222 1174
1175 1305
1305 1175
1175 1322
1322 1175
1175 1752
1752 1175
1175 1892
1892 1175
1176 1401
1401 1176
1177 1311
1311 1177
1177 1899
1899 1177
1178 1362
1362 1178
1178 1504
1504 1178
1178 1562
1562 1178
1178 1582
1582 1178
1178 1686
1686 1178
1178 1697
1697 1178
1178 1723
1723 1178
1179 1318
1318 1179
1179 1350
1350 1179
1179 1698
1698 1179
1179 1813
1813 1179
1180 1238
1238 1180
1180 1315
1315 1180
1180 1405
1405 1180
1180 1445
1445 1180
1180 1525
1525 1180
1180 1633
1633 1180
1180 1649
1649 1180
1180 1736
1736 1180
1180 1831
1831 1180
1181 1420
1420 1181
1181 1444
1444 1181
1181 1951
1951 1181
1182 1225
1225 1182
1182 1468
1468 1182
1182 1685
1685 1182
1182 1881
1881 1182
1183 1890
1890 1183
1183 1922
1922 1183
1184 1195
1195 1184
1184 1813
1813 1184
1184 1837
1837 1184
1185 1425
1425 1185
1185 1461
1461 1185
1185 1487
1487 1185
1185 1699
1699 1185
1186 1468
1468 1186
1187 1834
1834 1187
1187 1886
1886 1187
1188 1233
1233 1188
1188 1773
1773 1188
1188 1808
1808 1188
1189 1254
1254 1189
1189 1255
1255 1189
1189 1281
1281 1189
1189 1820
1820 1189
1189 1863
1863 1189
1190 1193
1193 1190
1190 1405
1405 1190
1190 1460
1460 1190
1191 1313
1313 1191
1191 1324
1324 1191
1191 1470
1470 1191
1191 1967
1967 1191
1192 1256
1256 1192
1192 1651
1651 1192
1192 1775
1775 1192
1192 1811
1811 1192
1192 1839
1839 1192
1193 1224
1224 1193
1193 1728
1728 1193
1193 1793
1793 1193
1194 1354
1354 1194
1194 1534
1534 1194
1194 1834
1834 1194
1194 1852
1852 1194
1195 1390
1390 1195
1196 1218
1218 1196
1196 1491
1491 1196
1196 1963
1963 1196
1196 1969
1969 1196
1197 1258
1258 1197
1197 1790
1790 1197
1198 1263
1263 1198
1198 1784
1784 1198
1198 1881
1881 1198
1199 1982
1982 1199
1200 1317
1317 1200
1200 1820
1820 1200
1201 1284
1284 1201
1201 1847
1847 1201
1201 1874
1874 1201
1201 1996
1996 1201
1202 1946
1946 1202
1203 1959
1959 1203
1203 1960
1960 1203
1204 1285
1285 1204
1204 1676
1676 1204
1204 1729
1729 1204
1204 1862
1862 1204
1204 1896
1896 1204
1205 1279
1279 1205
1205 1606
1606 1205
1205 1844
1844 1205
1205 1995
1995 1205
1206 1267
1267 1206
1206 1415
1415 1206
1206 1521
1521 1206
1206 1537
1537 1206
1206 1601
1601 1206
1206 1833
1833 1206
1206 1959
1959 1206
1207 1242
1242 1207
1207 1427
1427 1207
1207 1507
1507 1207
1207 1884
1884 1207
1207 1937
1937 1207
1208 1354
1354 1208
1208 1588
1588 1208
1208 2000
2000 1208
1209 1582
1582 1209
1209 1605
1605 1209
1209 1889
1889 1209
1210 1307
1307 1210
1210 1806
1806 1210
1211 1600
1600 1211
1212 1231
1231 1212
1212 1534
1534 1212
1212 1640
1640 1212
1212 1941
1941 1212
1213 1290
1290 1213
1213 1437
1437 1213
1213 1531
1531 1213
1213 1599
1599 1213
1213 1645
1645 1213
1213 1656
1656 1213
1213 1815
1815 1213
1214 1275
1275 1214
1214 1503
1503 1214
1214 1752
1752 1214
1215 1230
1230 1215
1215 1459
1459 1215
1215 1672
1672 1215
1216 1481
1481 1216
1216 1757
1757 1216
1216 1855
1855 1216
1217 1410
1410 1217
1217 1490
1490 1217
1217 1544
1544 1217
1217 1831
1831 1217
1218 1591
1591 1218
1218 1847
1847 1218
1218 1860
1860 1218
1219 1732
1732 1219
1219 1833
1833 1219
1220 1737
1737 1220
1221 1291
1291 1221
1221 1499
1499 1221
1221 1859
1859 1221
1221 1925
1925 1221
1221 1960
1960 1221
1222 1240
1240 1222
1222 1344
1344 1222
1222 1564
1564 1222
1222 1572
1572 1222
1222 1691
1691 1222
1223 1290
1290 1223
1223 1308
1308 1223
1223 1363
1363 1223
1224 1499
1499 1224
1224 1583
1583 1224
1224 1751
1751 1224
1225 1298
1298 1225
1225 1331
1331 1225
1225 1671
1671 1225
1225 1759
1759 1225
1225 1854
1854 1225
1225 1934
1934 1225
1225 1955
1955 1225
1226 1409
1409 1226
1226 1505
1505 1226
1226 1817
1817 1226
1228 1389
1389 1228
1228 1883
1883 1228
1228 1901
1901 1228
1228 1965
1965 1228
1229 1371
1371 1229
1229 1382
1382 1229
1229 1702
1702 1229
1229 1738
1738 1229
1229 1755
1755 1229
1229 1906
1906 1229
1230 1833
1833 1230
1230 1877
1877 1230
1231 1357
1357 1231
1231 1839
1839 1231
1231 1939
1939 1231
1232 1752
1752 1232
1233 1241
1241 1233
1233 1279
1279 1233
1233 1325
1325 1233
1233 1558
1558 1233
1233 1673
1673 1233
1234 1245
1245 1234
1234 1311
1311 1234
1234 1486
1486 1234
1234 1572
1572 1234
1234 1872
1872 1234
1235 1322
1322 1235
1235 1350
1350 1235
1235 1527
1527 1235
1236 1243
1243 1236
1236 1436
1436 1236
1236 1480
1480 1236
1236 1538
1538 1236
1236 1632
1632 1236
1236 1656
1656 1236
1236 1727
1727 1236
1236 1991
1991 1236
1237 1446
1446 1237
1237 1544
1544 1237
1237 1908
1908 1237
1238 1582
1582 1238
1238 1709
1709 1238
1238 1713
1713 1238
1238 1816
1816 1238
1239 1659
1659 1239
1239 1685
1685 1239
1240 1307
1307 1240
1240 1453
1453 1240
1241 1413
1413 1241
1241 1441
1441 1241
1241 1606
1606 1241
1241 1900
1900 1241
1242 1397
1397 1242
1242 1892
1892 1242
1243 1427
1427 1243
1243 1441
1441 1243
1243 1501
1501 1243
1244 1419
1419 1244
1244 1452
1452 1244
1244 1499
1499 1244
1245 1839
1839 1245
1246 1269
1269 1246
1246 1316
1316 1246
1246 1393
1393 1246
1246 1416
1416 1246
1246 1778
1778 1246
1247 1565
1565 1247
1247 1642
1642 1247
1247 1737
1737 1247
1247 1812
1812 1247
1248 1317
1317 1248
1248 1406
1406 1248
1248 1808
1808 1248
1248 1963
1963 1248
1248 1998
1998 1248
1249 1272
1272 1249
1249 1378
1378 1249
1250 1335
1335 1250
1250 1598
1598 1250
1250 1615
1615 1250
1250 1875
1875 1250
1250 1898
1898 1250
1251 1480
1480 1251
1252 1321
1321 1252
1252 1411
1411 1252
1252 1585
1585 1252
1252 1677
1677 1252
1253 1311
1311 1253
1253 1544
1544 1253
1253 1762
1762 1253
1253 1938
1938 1253
1254 1302
1302 1254
1254 1337
1337 1254
1254 1563
1563 1254
1254 1787
1787 1254
1255 1367
1367 1255
1255 1484
1484 1255
1255 1676
1676 1255
1256 1285
1285 1256
1256 1411
1411 1256
1256 1968
1968 1256
1257 1286
1286 1257
1257 1472
1472 1257
1258 1262
1262 1258
1258 1492
1492 1258
1258 1878
1878 1258
1259 1625
1625 1259
1259 1899
1899 1259
1259 1908
1908 1259
1259 1968
1968 1259
1260 1339
1339 1260
1260 1401
1401 1260
1260 1577
1577 1260
1260 1729
1729 1260
1260 1890
1890 1260
1261 1368
1368 1261
1261 1375
1375 1261
1261 1568
1568 1261
1263 1542
1542 1263
1263 1928
1928 1263
1264 1554
1554 1264
1264 1692
1692 1264
1264 1756
1756 1264
1264 1769
1769 1264
1264 1889
1889 1264
1264 1966
1966 1264
1265 1576
1576 1265
1266 1533
1533 1266
1266 1538
1538 1266
1266 1877
1877 1266
1266 1979
1979 1266
1267 1602
1602 1267
1267 1797
1797 1267
1268 1322
1322 1268
1269 1542
1542 1269
1269 1565
1565 1269
1269 1570
1570 1269
1269 1589
1589 1269
1269 1769
1769 1269
1270 1472
1472 1270
1270 1722
1722 1270
1270 1927
1927 1270
1271 1330
1330 1271
1271 1481
1481 1271
1271 1567
1567 1271
1271 1837
1837 1271
1272 1312
1312 1272
1272 1367
1367 1272
1272 1769
1769 1272
1272 1925
1925 1272
1274 1464
1464 1274
1275 1588
1588 1275
1275 1756
1756 1275
1275 1787
1787 1275
1276 1411
1411 1276
1276 1440
1440 1276
1276 1463
1463 1276
1276 1709
1709 1276
1276 1755
1755 1276
1277 1965
1965 1277
1278 1507
1507 1278
1278 1677
1677 1278
1279 1354
1354 1279
1279 1574
1574 1279
1280 1373
1373 1280
1280 1961
1961 1280
1281 1503
1503 1281
1281 1545
1545 1281
1281 1932
1932 1281
1282 1371
1371 1282
1282 1439
1439 1282
1282 1852
1852 1282
1282 2000
2000 1282
1283 1375
1375 1283
1283 1433
1433 1283
1283 1609
1609 1283
1283 1909
1909 1283
1284 1367
1367 1284
1284 1622
1622 1284
1284 1981
1981 1284
1285 1514
1514 1285
1285 1562
1562 1285
1285 1849
1849 1285
1286 1612
1612 1286
1286 1674
1674 1286
1286 1725
1725 1286
1286 1830
1830 1286
1287 1802
1802 1287
1288 1372
1372 1288
1288 1564
1564 1288
1288 1755
1755 1288
1288 1757
1757 1288
1288 1974
1974 1288
1289 1359
1359 1289
1289 1757
1757 1289
1289 1870
1870 1289
1289 1975
1975 1289
1290 1717
1717 1290
1291 1798
1798 1291
1292 1433
1433 1292
1292 1596
1596 1292
1292 1713
1713 1292
1293 1421
1421 1293
1293 1548
1548 1293
1293 1723
1723 1293
1293 1856
1856 1293
1294 1657
1657 1294
1294 1880
1880 1294
1295 1981
1981 1295
1296 1635
1635 1296
1296 1811
1811 1296
1296 1878
1878 1296
1297 1417
1417 1297
1297 1440
1440 1297
1297 1502
1502 1297
1297 1650
1650 1297
1298 1313
1313 1298
1298 1334
1334 1298
1298 1408
1408 1298
1298 1503
1503 1298
1299 1484
1484 1299
1300 1751
1751 1300
1300 1907
1907 1300
1301 1378
1378 1301
1301 1820
1820 1301
1302 1375
1375 1302
1302 1540
1540 1302
1302 1807
1807 1302
1302 1974
1974 1302
1302 1981
1981 1302
1303 1812
1812 1303
1304 1721
1721 1304
1304 1729
1729 1304
1304 1850
1850 1304
1304 1935
1935 1304
1304 1974
1974 1304
1305 1543
1543 1305
1305 1698
1698 1305
1305 1755
1755 1305
1305 1996
1996 1305
1306 1463
1463 1306
1306 1561
1561 1306
1306 1593
1593 1306
1307 1724
1724 1307
1308 1475
1475 1308
1308 1549
1549 1308
1308 1868
1868 1308
1308 1976
1976 1308
1309 1602
1602 1309
1309 1810
1810 1309
1309 1924
1924 1309
1310 1330
1330 1310
1310 1566
1566 1310
1310 1657
1657 1310
1310 1895
1895 1310
1311 1543
1543 1311
1311 1650
1650 1311
1311 1938
1938 1311
1312 1391
1391 1312
1312 1570
1570 1312
1312 1601
1601 1312
1312 1880
1880 1312
1312 1940
1940 1312
1313 1315
1315 1313
1314 1892
1892 1314
1315 1383
1383 1315
1315 1548
1548 1315
1315 1633
1633 1315
1315 1751
1751 1315
1315 1822
1822 1315
1316 1797
1797 1316
1317 1623
1623 1317
1318 1344
1344 1318
1318 1578
1578 1318
1318 1831
1831 1318
1318 1875
1875 1318
1318 1884
1884 1318
1318 1998
1998 1318
1319 1451
1451 1319
1319 1862
1862 1319
1320 1340
1340 1320
1320 1502
1502 1320
1320 1503
1503 1320
1320 1617
1617 1320
1321 1799
1799 1321
1322 1485
1485 1322
1323 1895
1895 1323
1324 1576
1576 1324
1324 1636
1636 1324
1325 1720
1720 1325
1325 1962
1962 1325
1326 1355
1355 1326
1326 1396
1396 1326
1326 1467
1467 1326
1326 1480
1480 1326
1326 1582
1582 1326
1327 1686
1686 1327
1327 1833
1833 1327
1329 1873
1873 1329
1329 1905
1905 1329
1329 1993
1993 1329
1330 1561
1561 1330
1331 1613
1613 1331
1332 1345
1345 1332
1332 1441
1441 1332
1332 1999
1999 1332
1333 1574
1574 1333
1333 1693
1693 1333
1334 1709
1709 1334
1334 1850
1850 1334
1335 1674
1674 1335
1336 1746
1746 1336
1336 1804
1804 1336
1336 1827
1827 1336
1337 1666
1666 1337
1337 1927
1927 1337
1338 1541
1541 1338
1338 1652
1652 1338
1339 1390
1390 1339
1339 1602
1602 1339
1339 1940
1940 1339
1340 1641
1641 1340
1341 1387
1387 1341
1342 1349
1349 1342
1342 1535
1535 1342
1342 1661
1661 1342
1342 1833
1833 1342
1343 1397
1397 1343
1343 1485
1485 1343
1344 1488
1488 1344
1344 1512
1512 1344
1344 1513
1513 1344
1344 1557
1557 1344
1344 1806
1806 1344
1345 1350
1350 1345
1345 1413
1413 1345
1345 1430
1430 1345
1345 1752
1752 1345
1345 1778
1778 1345
1345 1850
1850 1345
1346 1530
1530 1346
1347 1525
1525 1347
1347 1983
1983 1347
1348 1735
1735 1348
1348 1830
1830 1348
1349 1542
1542 1349
1349 1759
1759 1349
1350 1359
1359 1350
1350 1697
1697 1350
1351 1824
1824 1351
1351 1864
1864 1351
1352 1775
1775 1352
1353 1654
1654 1353
1353 1703
1703 1353
1353 1822
1822 1353
1355 1688
1688 1355
1355 1963
1963 1355
1356 1361
1361 1356
1356 1449
1449 1356
1356 1504
1504 1356
1356 1557
1557 1356
1356 1629
1629 1356
1356 1831
1831 1356
1356 1906
1906 1356
1356 1920
1920 1356
1357 1495
1495 1357
1357 1844
1844 1357
1358 1499
1499 1358
1358 1512
1512 1358
1359 1384
1384 1359
1359 1407
1407 1359
1359 1686
1686 1359
1359 1798
1798 1359
1361 1421
1421 1361
1361 1429
1429 1361
1361 1597
1597 1361
1361 1872
1872 1361
1361 1990
1990 1361
1362 1795
1795 1362
1362 1838
1838 1362
1363 1665
1665 1363
1363 1829
1829 1363
1363 1934
1934 1363
1364 1512
1512 1364
1364 1800
1800 1364
1366 1826
1826 1366
1366 1927
1927 1366
1367 1456
1456 1367
1367 1487
1487 1367
1367 1680
1680 1367
1367 1694
1694 1367
1367 1727
1727 1367
1368 1517
1517 1368
1369 1975
1975 1369
1370 1521
1521 1370
1371 1389
1389 1371
1371 1838
1838 1371
1371 1986
1986 1371
1372 1425
1425 1372
1372 1858
1858 1372
1373 1497
1497 1373
1373 1674
1674 1373
1373 1906
1906 1373
1373 1928
1928 1373
1375 1601
1601 1375
1375 1699
1699 1375
1376 1403
1403 1376
1376 1542
1542 1376
1377 1746
1746 1377
1377 1856
1856 1377
1378 1480
1480 1378
1378 1703
1703 1378
1379 1558
1558 1379
1379 1705
1705 1379
1381 1420
1420 1381
1381 1478
1478 1381
1381 1543
1543 1381
1381 1863
1863 1381
1382 1416
1416 1382
1382 1822
1822 1382
1383 1884
1884 1383
1383 1986
1986 1383
1384 1507
1507 1384
1384 1524
1524 1384
1384 1837
1837 1384
1384 1849
1849 1384
1385 1640
1640 1385
1386 1489
1489 1386
1386 1567
1567 1386
1386 1640
1640 1386
1386 1665
1665 1386
1389 1469
1469 1389
1389 1471
1471 1389
1389 1856
1856 1389
1389 1939
1939 1389
1390 1492
1492 1390
1390 1515
1515 1390
1390 1669
1669 1390
1391 1475
1475 1391
1391 1871
1871 1391
1392 1434
1434 1392
1393 1986
1986 1393
1394 1616
1616 1394
1395 1844
1844 1395
1397 1447
1447 1397
1397 1644
1644 1397
1397 1693
1693 1397
1397 1796
1796 1397
1397 1981
1981 1397
1399 1514
1514 1399
1399 1525
1525 1399
1399 1732
1732 1399
1399 1763
1763 1399
1399 1822
1822 1399
1399 1981
1981 1399
1400 1549
1549 1400
1400 1555
1555 1400
1400 1792
1792 1400
1401 1943
1943 1401
1402 1455
1455 1402
1402 1712
1712 1402
1402 1751
1751 1402
1403 1720
1720 1403
1403 1975
1975 1403
1404 1682
1682 1404
1404 1725
1725 1404
1404 1903
1903 1404
1405 1453
1453 1405
1405 1853
1853 1405
1406 1460
1460 1406
1407 1942
1942 1407
1408 1410
1410 1408
1408 1481
1481 1408
1408 1898
1898 1408
1409 1504
1504 1409
1409 1883
1883 1409
1410 1517
1517 1410
1410 1650
1650 1410
1411 1642
1642 1411
1411 1659
1659 1411
1411 1758
1758 1411
1411 1961
1961 1411
1412 1507
1507 1412
1413 1522
1522 1413
1413 1714
1714 1413
1414 1824
1824 1414
1416 1595
1595 1416
1416 1672
1672 1416
1416 1675
1675 1416
1417 1475
1475 1417
1417 1653
1653 1417
1417 1691
1691 1417
1418 1637
1637 1418
1418 1753
1753 1418
1419 1518
1518 1419
1420 1691
1691 1420
1421 1609
1609 1421
1421 1758
1758 1421
1421 1791
1791 1421
1421 1935
1935 1421
1422 1666
1666 1422
1423 1500
1500 1423
1423 1529
1529 1423
1424 1728
1728 1424
1424 1795
1795 1424
1424 1836
1836 1424
1425 1522
1522 1425
1425 1920
1920 1425
1425 1925
1925 1425
1426 1878
1878 1426
1427 1434
1434 1427
1427 1526
1526 1427
1427 1795
1795 1427
1427 1839
1839 1427
1427 1964
1964 1427
1428 1517
1517 1428
1428 1585
1585 1428
1428 1708
1708 1428
1429 1485
1485 1429
1429 1579
1579 1429
1429 1603
1603 1429
1429 1613
1613 1429
1429 1843
1843 1429
1430 1502
1502 1430
1431 1468
1468 1431
1431 1874
1874 1431
1431 1941
1941 1431
1431 1953
1953 1431
1432 1439
1439 1432
1432 1796
1796 1432
1433 1736
1736 1433
1433 1768
1768 1433
1434 1478
1478 1434
1434 1889
1889 1434
1434 1906
1906 1434
1435 1573
1573 1435
1435 1829
1829 1435
1436 1953
1953 1436
1436 1967
1967 1436
1437 1764
1764 1437
1437 1784
1784 1437
1437 1937
1937 1437
1439 1610
1610 1439
1439 1923
1923 1439
1440 1750
1750 1440
1440 1766
1766 1440
1440 1770
1770 1440
1440 1859
1859 1440
1441 1649
1649 1441
1443 1856
1856 1443
1444 1472
1472 1444
1444 1536
1536 1444
1444 1720
1720 1444
1444 2000
2000 1444
1445 1544
1544 1445
1445 1640
1640 1445
1446 1505
1505 1446
1446 1541
1541 1446
1446 1651
1651 1446
1447 1830
1830 1447
1448 1702
1702 1448
1449 1755
1755 1449
1451 1815
1815 1451
1452 1507
1507 1452
1452 1793
1793 1452
1452 1858
1858 1452
1452 1891
1891 1452
1453 1720
1720 1453
1453 1936
1936 1453
1454 1461
1461 1454
1455 1879
1879 1455
1456 1522
1522 1456
1456 1528
1528 1456
1456 1675
1675 1456
1456 1875
1875 1456
1457 1491
1491 1457
1458 1548
1548 1458
1458 1620
1620 1458
1458 1776
1776 1458
1459 1912
1912 1459
1460 1635
1635 1460
1460 1936
1936 1460
1460 1943
1943 1460
1460 1950
1950 1460
1460 1986
1986 1460
1461 1915
1915 1461
1462 1503
1503 1462
1462 1514
1514 1462
1462 1625
1625 1462
1462 1636
1636 1462
1462 1749
1749 1462
1463 1924
1924 1463
1465 1649
1649 1465
1466 1593
1593 1466
1467 1634
1634 1467
1467 1689
1689 1467
1467 1760
1760 1467
1467 1827
1827 1467
1467 1837
1837 1467
1467 1888
1888 1467
1467 1912
1912 1467
1468 1638
1638 1468
1468 1643
1643 1468
1469 1627
1627 1469
1469 1764
1764 1469
1470 1478
1478 1470
1470 1588
1588 1470
1470 1621
1621 1470
1470 1627
1627 1470
1470 1735
1735 1470
1470 1772
1772 1470
1471 1527
1527 1471
1471 1778
1778 1471
1471 1885
1885 1471
1472 1523
1523 1472
1472 1721
1721 1472
1473 1548
1548 1473
1473 1751
1751 1473
1474 1494
1494 1474
1474 1549
1549 1474
1474 1617
1617 1474
1474 1731
1731 1474
1475 1866
1866 1475
1476 1671
1671 1476
1476 1998
1998 1476
1477 1563
1563 1477
1477 1609
1609 1477
1477 1797
1797 1477
1478 1613
1613 1478
1479 1480
1480 1479
1479 1568
1568 1479
1479 1599
1599 1479
1479 1858
1858 1479
1480 1504
1504 1480
1482 1684
1684 1482
1483 1724
1724 1483
1484 1634
1634 1484
1484 1644
1644 1484
1484 1686
1686 1484
1485 1968
1968 1485
1486 1666
1666 1486
1486 1766
1766 1486
1486 1853
1853 1486
1487 1651
1651 1487
1490 1846
1846 1490
1490 1859
1859 1490
1490 1953
1953 1490
1490 1963
1963 1490
1490 1970
1970 1490
1490 1990
1990 1490
1492 1530
1530 1492
1492 1559
1559 1492
1492 1767
1767 1492
1493 1500
1500 1493
1493 1666
1666 1493
1493 1691
1691 1493
1493 1990
1990 1493
1494 1558
1558 1494
1494 1566
1566 1494
1494 1639
1639 1494
1494 1647
1647 1494
1494 1971
1971 1494
1495 1658
1658 1495
1496 1551
1551 1496
1496 1564
1564 1496
1496 1705
1705 1496
1497 1517
1517 1497
1498 1503
1503 1498
1498 1507
1507 1498
1498 1778
1778 1498
1498 1875
1875 1498
1500 1941
1941 1500
1501 1507
1507 1501
1502 1517
1517 1502
1502 1559
1559 1502
1502 1988
1988 1502
1503 1531
1531 1503
1503 1832
1832 1503
1503 1839
1839 1503
1504 1820
1820 1504
1504 1925
1925 1504
1505 1539
1539 1505
1506 1797
1797 1506
1507 1541
1541 1507
1508 1509
1509 1508
1508 1931
1931 1508
1509 1926
1926 1509
1511 1671
1671 1511
1511 1768
1768 1511
1511 1784
1784 1511
1511 1965
1965 1511
1512 1517
1517 1512
1513 1970
1970 1513
1515 1573
1573 1515
1516 1879
1879 1516
1517 1619
1619 1517
1517 1901
1901 1517
1518 1640
1640 1518
1518 1919
1919 1518
1519 1619
1619 1519
1520 1653
1653 1520
1521 1573
1573 1521
1522 1591
1591 1522
1522 1639
1639 1522
1522 1709
1709 1522
1522 1916
1916 1522
1523 1970
1970 1523
1524 1675
1675 1524
1525 1822
1822 1525
1525 1884
1884 1525
1526 1589
1589 1526
1526 1635
1635 1526
1526 1904
1904 1526
1527 1747
1747 1527
1527 1814
1814 1527
1527 1957
1957 1527
1528 1571
1571 1528
1529 1939
1939 1529
1530 1621
1621 1530
1530 1622
1622 1530
1530 1984
1984 1530
1530 1994
1994 1530
1531 1620
1620 1531
1531 1764
1764 1531
1533 1792
1792 1533
1533 1917
1917 1533
1533 1985
1985 1533
1534 1610
1610 1534
1534 1626
1626 1534
1536 1624
1624 1536
1536 1665
1665 1536
1536 1710
1710 1536
1538 1878
1878 1538
1539 1897
1897 1539
1539 1906
1906 1539
1539 1927
1927 1539
1540 1576
1576 1540
1540 1724
1724 1540
1542 1782
1782 1542
1542 1845
1845 1542
1542 1990
1990 1542
1544 1600
1600 1544
1544 1796
1796 1544
1544 1996
1996 1544
1545 1661
1661 1545
1545 1780
1780 1545
1545 1880
1880 1545
1546 1673
1673 1546
1546 1794
1794 1546
1546 1804
1804 1546
1546 1824
1824 1546
1546 1839
1839 1546
1546 1901
1901 1546
1547 1548
1548 1547
1547 1918
1918 1547
1548 1594
1594 1548
1548 1766
1766 1548
1549 1762
1762 1549
1549 1844
1844 1549
1549 1994
1994 1549
1550 1702
1702 1550
1550 1764
1764 1550
1551 1873
1873 1551
1551 1884
1884 1551
1552 1603
1603 1552
1552 1771
1771 1552
1552 1778
1778 1552
1553 1965
1965 1553
1553 1988
1988 1553
1554 1709
1709 1554
1555 1614
1614 1555
1555 1766
1766 1555
1555 1997
1997 1555
1556 1674
1674 1556
1557 1599
1599 1557
1557 1696
1696 1557
1557 1999
1999 1557
1558 1808
1808 1558
1559 1809
1809 1559
1560 1707
1707 1560
1562 1834
1834 1562
1563 1869
1869 1563
1565 1596
1596 1565
1565 1978
1978 1565
1566 1733
1733 1566
1566 1794
1794 1566
1566 1833
1833 1566
1566 1961
1961 1566
1567 1805
1805 1567
1568 1636
1636 1568
1568 1640
1640 1568
1568 1671
1671 1568
1568 1818
1818 1568
1569 1757
1757 1569
1570 1686
1686 1570
1571 1918
1918 1571
1571 1922
1922 1571
1572 1722
1722 1572
1572 1744
1744 1572
1573 1624
1624 1573
1573 1899
1899 1573
1574 1594
1594 1574
1574 1665
1665 1574
1574 1684
1684 1574
1574 1694
1694 1574
1575 1624
1624 1575
1575 1959
1959 1575
1576 1628
1628 1576
1576 1729
1729 1576
1577 1616
1616 1577
1577 1708
1708 1577
1578 1750
1750 1578
1581 1613
1613 1581
1581 1738
1738 1581
1581 1810
1810 1581
1581 1844
1844 1581
1582 1801
1801 1582
1582 1849
1849 1582
1582 1942
1942 1582
1584 1712
1712 1584
1584 1741
1741 1584
1585 1590
1590 1585
1585 1704
1704 1585
1585 1948
1948 1585
1586 1703
1703 1586
1586 1898
1898 1586
1588 1824
1824 1588
1588 1934
1934 1588
1590 1599
1599 1590
1590 1710
1710 1590
1590 1763
1763 1590
1591 1994
1994 1591
1592 1658
1658 1592
1592 1738
1738 1592
1592 1801
1801 1592
1592 1846
1846 1592
1592 1918
1918 1592
1593 1891
1891 1593
1595 1714
1714 1595
1597 1723
1723 1597
1597 1759
1759 1597
1598 1733
1733 1598
1598 1845
1845 1598
1599 1841
1841 1599
1599 1871
1871 1599
1599 1900
1900 1599
1600 1685
1685 1600
1600 1839
1839 1600
1601 1682
1682 1601
1601 1950
1950 1601
1601 1995
1995 1601
1602 1626
1626 1602
1602 1663
1663 1602
1602 1800
1800 1602
1602 1806
1806 1602
1602 1906
1906 1602
1603 1606
1606 1603
1603 1631
1631 1603
1603 1640
1640 1603
1603 1645
1645 1603
1603 1718
1718 1603
1603 1777
1777 1603
1603 1944
1944 1603
1603 1958
1958 1603
1603 1961
1961 1603
1604 1981
1981 1604
1605 1866
1866 1605
1606 1772
1772 1606
1607 1872
1872 1607
1609 1729
1729 1609
1610 1658
1658 1610
1610 1804
1804 1610
1612 1874
1874 1612
1613 1745
1745 1613
1613 1832
1832 1613
1614 1654
1654 1614
1614 1737
1737 1614
1614 1939
1939 1614
1615 1846
1846 1615
1616 1808
1808 1616
1617 1665
1665 1617
1617 1694
1694 1617
1617 1975
1975 1617
1618 1749
1749 1618
1618 1820
1820 1618
1620 1662
1662 1620
1621 1870
1870 1621
1622 1767
1767 1622
1624 1672
1672 1624
1624 1675
1675 1624
1624 1759
1759 1624
1624 1772
1772 1624
1626 1633
1633 1626
1626 1662
1662 1626
1626 1834
1834 1626
1628 1709
1709 1628
1628 1731
1731 1628
1628 1753
1753 1628
1628 1977
1977 1628
1629 1836
1836 1629
1629 1999
1999 1629
1630 1678
1678 1630
1630 1849
1849 1630
1630 1943
1943 1630
1631 1890
1890 1631
1632 1873
1873 1632
1632 1889
1889 1632
1633 1692
1692 1633
1633 1860
1860 1633
1633 1983
1983 1633
1634 1682
1682 1634
1634 1821
1821 1634
1637 1731
1731 1637
1637 1765
1765 1637
1637 1927
1927 1637
1639 1843
1843 1639
1640 1676
1676 1640
1643 1694
1694 1643
1643 1813
1813 1643
1643 1845
1845 1643
1643 1994
1994 1643
1644 1833
1833 1644
1644 1857
1857 1644
1644 1877
1877 1644
1646 1936
1936 1646
1651 1700
1700 1651
1652 1957
1957 1652
1655 1799
1799 1655
1656 1717
1717 1656
1657 1764
1764 1657
1657 1964
1964 1657
1658 1842
1842 1658
1658 1907
1907 1658
1659 1895
1895 1659
1660 1691
1691 1660
1660 1870
1870 1660
1661 1858
1858 1661
1663 1812
1812 1663
1665 1796
1796 1665
1665 1818
1818 1665
1666 1853
1853 1666
1666 1867
1867 1666
1667 1776
1776 1667
1668 1739
1739 1668
1668 1885
1885 1668
1669 1739
1739 1669
1669 1907
1907 1669
1673 1931
1931 1673
1673 1954
1954 1673
1674 1781
1781 1674
1675 1688
1688 1675
1675 1729
1729 1675
1678 1995
1995 1678
1679 1736
1736 1679
1680 1781
1781 1680
1680 1850
1850 1680
1680 1978
1978 1680
1681 1872
1872 1681
1682 1688
1688 1682
1684 1738
1738 1684
1688 1703
1703 1688
1689 1863
1863 1689
1689 1903
1903 1689
1690 1774
1774 1690
1690 1898
1898 1690
1692 1782
1782 1692
1693 1903
1903 1693
1693 1973
1973 1693
1694 1700
1700 1694
1694 1728
1728 1694
1694 1835
1835 1694
1695 1708
1708 1695
1695 1748
1748 1695
1696 1935
1935 1696
1698 1921
1921 1698
1700 1720
1720 1700
1700 1893
1893 1700
1701 1704
1704 1701
1701 1728
1728 1701
1701 1735
1735 1701
1702 1855
1855 1702
1702 1863
1863 1702
1704 1728
1728 1704
1704 1891
1891 1704
1705 1720
1720 1705
1705 1778
1778 1705
1706 1831
1831 1706
1707 1986
1986 1707
1709 1743
1743 1709
1709 1959
1959 1709
1709 1964
1964 1709
1711 1736
1736 1711
1711 1776
1776 1711
1711 1924
1924 1711
1711 1991
1991 1711
1712 1914
1914 1712
1713 1816
1816 1713
1714 1879
1879 1714
1715 1867
1867 1715
1715 1876
1876 1715
1715 1931
1931 1715
1716 1934
1934 1716
1717 1735
1735 1717
1718 1840
1840 1718
1718 1905
1905 1718
1719 1755
1755 1719
1720 1894
1894 1720
1722 1880
1880 1722
1723 1753
1753 1723
1723 1788
1788 1723
1724 1949
1949 1724
1724 1989
1989 1724
1726 1981
1981 1726
1727 1854
1854 1727
1728 1779
1779 1728
1728 1910
1910 1728
1730 1734
1734 1730
1734 1752
1752 1734
1735 1926
1926 1735
1736 1867
1867 1736
1737 1901
1901 1737
1737 1983
1983 1737
1739 1890
1890 1739
1740 1785
1785 1740
1740 1813
1813 1740
1741 1910
1910 1741
1742 1872
1872 1742
1742 1999
1999 1742
1743 1955
1955 1743
1743 1982
1982 1743
1745 1757
1757 1745
1746 1912
1912 1746
1746 1953
1953 1746
1748 1818
1818 1748
1750 1772
1772 1750
1751 1972
1972 1751
1752 1777
1777 1752
1753 1840
1840 1753
1753 1849
1849 1753
1756 1866
1866 1756
1756 1962
1962 1756
1757 1769
1769 1757
1757 1925
1925 1757
1758 1762
1762 1758
1758 1912
1912 1758
1762 1847
1847 1762
1763 1960
1960 1763
1764 1947
1947 1764
1765 1829
1829 1765
1767 1934
1934 1767
1767 1970
1970 1767
1768 1864
1864 1768
1768 1963
1963 1768
1769 1925
1925 1769
1770 1819
1819 1770
1774 1878
1878 1774
1775 1919
1919 1775
1776 1863
1863 1776
1776 1893
1893 1776
1779 1979
1979 1779
1782 1819
1819 1782
1784 1792
1792 1784
1784 1958
1958 1784
1784 1993
1993 1784
1797 1913
1913 1797
1798 1931
1931 1798
1799 1886
1886 1799
1800 1844
1844 1800
1800 1968
1968 1800
1801 1842
1842 1801
1803 1858
1858 1803
1803 1919
1919 1803
1803 1970
1970 1803
1804 1862
1862 1804
1805 1828
1828 1805
1809 1820
1820 1809
1812 1992
1992 1812
1813 1839
1839 1813
1813 1874
1874 1813
1817 1829
1829 1817
1817 1851
1851 1817
1818 1950
1950 1818
1819 1920
1920 1819
1819 1970
1970 1819
1820 1883
1883 1820
1821 1829
1829 1821
1823 1854
1854 1823
1824 1954
1954 1824
1825 1955
1955 1825
1826 1968
1968 1826
1827 1843
1843 1827
1827 1923
1923 1827
1827 1926
1926 1827
1831 1842
1842 1831
1831 1989
1989 1831
1832 1865
1865 1832
1832 1929
1929 1832
1833 1847
1847 1833
1834 1877
1877 1834
1835 1997
1997 1835
1837 1954
1954 1837
1838 1889
1889 1838
1840 1953
1953 1840
1841 1979
1979 1841
1845 1865
1865 1845
1845 1962
1962 1845
1847 1933
1933 1847
1848 1902
1902 1848
1848 1909
1909 1848
1849 1866
1866 1849
1850 1921
1921 1850
1851 1963
1963 1851
1855 1989
1989 1855
1856 1937
1937 1856
1856 1939
1939 1856
1856 1942
1942 1856
1858 1999
1999 1858
1860 1922
1922 1860
1861 1936
1936 1861
1863 1893
1893 1863
1863 1911
1911 1863
1864 1915
1915 1864
1864 1916
1916 1864
1870 1908
1908 1870
1873 1899
1899 1873
1873 1957
1957 1873
1873 1965
1965 1873
1873 1983
1983 1873
1874 1886
1886 1874
1877 1907
1907 1877
1877 1920
1920 1877
1878 1890
1890 1878
1888 1970
1970 1888
1897 1983
1983 1897
1898 1977
1977 1898
1900 1990
1990 1900
1906 1952
1952 1906
1907 1920
1920 1907
1910 1934
1934 1910
1915 1919
1919 1915
1916 1985
1985 1916
1918 1920
1920 1918
1925 1937
1937 1925
1925 1964
1964 1925
1930 1980
1980 1930
1939 1973
1973 1939
1939 1985
1985 1939
1943 1974
1974 1943
1949 1962
1962 1949
1950 1996
1996 1950
1957 1983
1983 1957
1963 1967
1967 1963
1974 2000
2000 1974
1984 1999
1999 1984
